p cnf 302 3649
1 2 3 4 5 6 0
-1 -2 0
-1 -3 0
-1 -4 0
-1 -5 0
-1 -6 0
-2 -3 0
-2 -4 0
-2 -5 0
-2 -6 0
-3 -4 0
-3 -5 0
-3 -6 0
-4 -5 0
-4 -6 0
-5 -6 0
7 8 9 10 11 12 0
-7 -8 0
-7 -9 0
-7 -10 0
-7 -11 0
-7 -12 0
-8 -9 0
-8 -10 0
-8 -11 0
-8 -12 0
-9 -10 0
-9 -11 0
-9 -12 0
-10 -11 0
-10 -12 0
-11 -12 0
13 14 15 16 17 18 0
-13 -14 0
-13 -15 0
-13 -16 0
-13 -17 0
-13 -18 0
-14 -15 0
-14 -16 0
-14 -17 0
-14 -18 0
-15 -16 0
-15 -17 0
-15 -18 0
-16 -17 0
-16 -18 0
-17 -18 0
-8 -13 0
-9 -13 0
-9 -14 0
-10 -13 0
-10 -14 0
-10 -15 0
-11 -13 0
-11 -14 0
-11 -15 0
-11 -16 0
-12 -13 0
-12 -14 0
-12 -15 0
-12 -16 0
-12 -17 0
-7 -19 0
-8 19 0
-9 -19 0
-10 19 0
-11 -19 0
-12 19 0
-13 -27 0
-14 27 0
-15 -27 0
-16 27 0
-17 -27 0
-18 27 0
-1 19 27 -35 0
-1 19 -27 -35 0
-1 -19 27 -35 0
-1 -19 -27 35 0
-2 19 27 -35 0
-2 19 -27 35 0
-2 -19 27 35 0
-2 -19 -27 35 0
-3 19 27 -35 0
-3 19 -27 35 0
-3 -19 27 35 0
-3 -19 -27 -35 0
-4 19 27 35 0
-4 19 -27 35 0
-4 -19 27 35 0
-4 -19 -27 -35 0
-5 19 27 35 0
-5 19 -27 -35 0
-5 -19 27 -35 0
-5 -19 -27 -35 0
-6 19 27 35 0
-6 19 -27 -35 0
-6 -19 27 -35 0
-6 -19 -27 35 0
-7 20 0
-8 -20 0
-9 -20 0
-10 20 0
-11 -20 0
-12 20 0
-13 28 0
-14 -28 0
-15 -28 0
-16 28 0
-17 -28 0
-18 28 0
-1 20 28 -36 0
-1 20 -28 -36 0
-1 -20 28 -36 0
-1 -20 -28 36 0
-2 20 28 -36 0
-2 20 -28 36 0
-2 -20 28 36 0
-2 -20 -28 36 0
-3 20 28 -36 0
-3 20 -28 36 0
-3 -20 28 36 0
-3 -20 -28 -36 0
-4 20 28 36 0
-4 20 -28 36 0
-4 -20 28 36 0
-4 -20 -28 -36 0
-5 20 28 36 0
-5 20 -28 -36 0
-5 -20 28 -36 0
-5 -20 -28 -36 0
-6 20 28 36 0
-6 20 -28 -36 0
-6 -20 28 -36 0
-6 -20 -28 36 0
-7 -21 0
-8 21 0
-9 21 0
-10 -21 0
-11 -21 0
-12 21 0
-13 -29 0
-14 29 0
-15 29 0
-16 -29 0
-17 -29 0
-18 29 0
-1 21 29 -37 0
-1 21 -29 -37 0
-1 -21 29 -37 0
-1 -21 -29 37 0
-2 21 29 -37 0
-2 21 -29 37 0
-2 -21 29 37 0
-2 -21 -29 37 0
-3 21 29 -37 0
-3 21 -29 37 0
-3 -21 29 37 0
-3 -21 -29 -37 0
-4 21 29 37 0
-4 21 -29 37 0
-4 -21 29 37 0
-4 -21 -29 -37 0
-5 21 29 37 0
-5 21 -29 -37 0
-5 -21 29 -37 0
-5 -21 -29 -37 0
-6 21 29 37 0
-6 21 -29 -37 0
-6 -21 29 -37 0
-6 -21 -29 37 0
-7 22 0
-8 -22 0
-9 22 0
-10 -22 0
-11 -22 0
-12 22 0
-13 30 0
-14 -30 0
-15 30 0
-16 -30 0
-17 -30 0
-18 30 0
-1 22 30 -38 0
-1 22 -30 -38 0
-1 -22 30 -38 0
-1 -22 -30 38 0
-2 22 30 -38 0
-2 22 -30 38 0
-2 -22 30 38 0
-2 -22 -30 38 0
-3 22 30 -38 0
-3 22 -30 38 0
-3 -22 30 38 0
-3 -22 -30 -38 0
-4 22 30 38 0
-4 22 -30 38 0
-4 -22 30 38 0
-4 -22 -30 -38 0
-5 22 30 38 0
-5 22 -30 -38 0
-5 -22 30 -38 0
-5 -22 -30 -38 0
-6 22 30 38 0
-6 22 -30 -38 0
-6 -22 30 -38 0
-6 -22 -30 38 0
-7 -23 0
-8 23 0
-9 -23 0
-10 23 0
-11 23 0
-12 -23 0
-13 -31 0
-14 31 0
-15 -31 0
-16 31 0
-17 31 0
-18 -31 0
-1 23 31 -39 0
-1 23 -31 -39 0
-1 -23 31 -39 0
-1 -23 -31 39 0
-2 23 31 -39 0
-2 23 -31 39 0
-2 -23 31 39 0
-2 -23 -31 39 0
-3 23 31 -39 0
-3 23 -31 39 0
-3 -23 31 39 0
-3 -23 -31 -39 0
-4 23 31 39 0
-4 23 -31 39 0
-4 -23 31 39 0
-4 -23 -31 -39 0
-5 23 31 39 0
-5 23 -31 -39 0
-5 -23 31 -39 0
-5 -23 -31 -39 0
-6 23 31 39 0
-6 23 -31 -39 0
-6 -23 31 -39 0
-6 -23 -31 39 0
-7 24 0
-8 -24 0
-9 -24 0
-10 24 0
-11 24 0
-12 -24 0
-13 32 0
-14 -32 0
-15 -32 0
-16 32 0
-17 32 0
-18 -32 0
-1 24 32 -40 0
-1 24 -32 -40 0
-1 -24 32 -40 0
-1 -24 -32 40 0
-2 24 32 -40 0
-2 24 -32 40 0
-2 -24 32 40 0
-2 -24 -32 40 0
-3 24 32 -40 0
-3 24 -32 40 0
-3 -24 32 40 0
-3 -24 -32 -40 0
-4 24 32 40 0
-4 24 -32 40 0
-4 -24 32 40 0
-4 -24 -32 -40 0
-5 24 32 40 0
-5 24 -32 -40 0
-5 -24 32 -40 0
-5 -24 -32 -40 0
-6 24 32 40 0
-6 24 -32 -40 0
-6 -24 32 -40 0
-6 -24 -32 40 0
-7 -25 0
-8 25 0
-9 25 0
-10 -25 0
-11 25 0
-12 -25 0
-13 -33 0
-14 33 0
-15 33 0
-16 -33 0
-17 33 0
-18 -33 0
-1 25 33 -41 0
-1 25 -33 -41 0
-1 -25 33 -41 0
-1 -25 -33 41 0
-2 25 33 -41 0
-2 25 -33 41 0
-2 -25 33 41 0
-2 -25 -33 41 0
-3 25 33 -41 0
-3 25 -33 41 0
-3 -25 33 41 0
-3 -25 -33 -41 0
-4 25 33 41 0
-4 25 -33 41 0
-4 -25 33 41 0
-4 -25 -33 -41 0
-5 25 33 41 0
-5 25 -33 -41 0
-5 -25 33 -41 0
-5 -25 -33 -41 0
-6 25 33 41 0
-6 25 -33 -41 0
-6 -25 33 -41 0
-6 -25 -33 41 0
-7 26 0
-8 -26 0
-9 26 0
-10 -26 0
-11 26 0
-12 -26 0
-13 34 0
-14 -34 0
-15 34 0
-16 -34 0
-17 34 0
-18 -34 0
-1 26 34 -42 0
-1 26 -34 -42 0
-1 -26 34 -42 0
-1 -26 -34 42 0
-2 26 34 -42 0
-2 26 -34 42 0
-2 -26 34 42 0
-2 -26 -34 42 0
-3 26 34 -42 0
-3 26 -34 42 0
-3 -26 34 42 0
-3 -26 -34 -42 0
-4 26 34 42 0
-4 26 -34 42 0
-4 -26 34 42 0
-4 -26 -34 -42 0
-5 26 34 42 0
-5 26 -34 -42 0
-5 -26 34 -42 0
-5 -26 -34 -42 0
-6 26 34 42 0
-6 26 -34 -42 0
-6 -26 34 -42 0
-6 -26 -34 42 0
43 44 45 46 47 48 0
-43 -44 0
-43 -45 0
-43 -46 0
-43 -47 0
-43 -48 0
-44 -45 0
-44 -46 0
-44 -47 0
-44 -48 0
-45 -46 0
-45 -47 0
-45 -48 0
-46 -47 0
-46 -48 0
-47 -48 0
49 50 51 52 53 54 55 56 0
-49 -50 0
-49 -51 0
-49 -52 0
-49 -53 0
-49 -54 0
-49 -55 0
-49 -56 0
-50 -51 0
-50 -52 0
-50 -53 0
-50 -54 0
-50 -55 0
-50 -56 0
-51 -52 0
-51 -53 0
-51 -54 0
-51 -55 0
-51 -56 0
-52 -53 0
-52 -54 0
-52 -55 0
-52 -56 0
-53 -54 0
-53 -55 0
-53 -56 0
-54 -55 0
-54 -56 0
-55 -56 0
57 58 59 60 61 62 63 64 0
-57 -58 0
-57 -59 0
-57 -60 0
-57 -61 0
-57 -62 0
-57 -63 0
-57 -64 0
-58 -59 0
-58 -60 0
-58 -61 0
-58 -62 0
-58 -63 0
-58 -64 0
-59 -60 0
-59 -61 0
-59 -62 0
-59 -63 0
-59 -64 0
-60 -61 0
-60 -62 0
-60 -63 0
-60 -64 0
-61 -62 0
-61 -63 0
-61 -64 0
-62 -63 0
-62 -64 0
-63 -64 0
-50 -57 0
-51 -57 0
-51 -58 0
-52 -57 0
-52 -58 0
-52 -59 0
-53 -57 0
-53 -58 0
-53 -59 0
-53 -60 0
-54 -57 0
-54 -58 0
-54 -59 0
-54 -60 0
-54 -61 0
-55 -57 0
-55 -58 0
-55 -59 0
-55 -60 0
-55 -61 0
-55 -62 0
-56 -57 0
-56 -58 0
-56 -59 0
-56 -60 0
-56 -61 0
-56 -62 0
-56 -63 0
-49 -65 0
-50 65 0
-51 -65 0
-52 65 0
-53 -65 0
-54 65 0
-55 -65 35 0
-55 65 -35 0
-56 -65 -35 0
-56 65 35 0
-57 -73 0
-58 73 0
-59 -73 0
-60 73 0
-61 -73 0
-62 73 0
-63 -73 35 0
-63 73 -35 0
-64 -73 -35 0
-64 73 35 0
-43 65 73 -81 0
-43 65 -73 -81 0
-43 -65 73 -81 0
-43 -65 -73 81 0
-44 65 73 -81 0
-44 65 -73 81 0
-44 -65 73 81 0
-44 -65 -73 81 0
-45 65 73 -81 0
-45 65 -73 81 0
-45 -65 73 81 0
-45 -65 -73 -81 0
-46 65 73 81 0
-46 65 -73 81 0
-46 -65 73 81 0
-46 -65 -73 -81 0
-47 65 73 81 0
-47 65 -73 -81 0
-47 -65 73 -81 0
-47 -65 -73 -81 0
-48 65 73 81 0
-48 65 -73 -81 0
-48 -65 73 -81 0
-48 -65 -73 81 0
-49 66 0
-50 -66 0
-51 -66 0
-52 66 0
-53 -66 0
-54 66 0
-55 -66 36 0
-55 66 -36 0
-56 -66 -36 0
-56 66 36 0
-57 74 0
-58 -74 0
-59 -74 0
-60 74 0
-61 -74 0
-62 74 0
-63 -74 36 0
-63 74 -36 0
-64 -74 -36 0
-64 74 36 0
-43 66 74 -82 0
-43 66 -74 -82 0
-43 -66 74 -82 0
-43 -66 -74 82 0
-44 66 74 -82 0
-44 66 -74 82 0
-44 -66 74 82 0
-44 -66 -74 82 0
-45 66 74 -82 0
-45 66 -74 82 0
-45 -66 74 82 0
-45 -66 -74 -82 0
-46 66 74 82 0
-46 66 -74 82 0
-46 -66 74 82 0
-46 -66 -74 -82 0
-47 66 74 82 0
-47 66 -74 -82 0
-47 -66 74 -82 0
-47 -66 -74 -82 0
-48 66 74 82 0
-48 66 -74 -82 0
-48 -66 74 -82 0
-48 -66 -74 82 0
-49 -67 0
-50 67 0
-51 67 0
-52 -67 0
-53 -67 0
-54 67 0
-55 -67 37 0
-55 67 -37 0
-56 -67 -37 0
-56 67 37 0
-57 -75 0
-58 75 0
-59 75 0
-60 -75 0
-61 -75 0
-62 75 0
-63 -75 37 0
-63 75 -37 0
-64 -75 -37 0
-64 75 37 0
-43 67 75 -83 0
-43 67 -75 -83 0
-43 -67 75 -83 0
-43 -67 -75 83 0
-44 67 75 -83 0
-44 67 -75 83 0
-44 -67 75 83 0
-44 -67 -75 83 0
-45 67 75 -83 0
-45 67 -75 83 0
-45 -67 75 83 0
-45 -67 -75 -83 0
-46 67 75 83 0
-46 67 -75 83 0
-46 -67 75 83 0
-46 -67 -75 -83 0
-47 67 75 83 0
-47 67 -75 -83 0
-47 -67 75 -83 0
-47 -67 -75 -83 0
-48 67 75 83 0
-48 67 -75 -83 0
-48 -67 75 -83 0
-48 -67 -75 83 0
-49 68 0
-50 -68 0
-51 68 0
-52 -68 0
-53 -68 0
-54 68 0
-55 -68 38 0
-55 68 -38 0
-56 -68 -38 0
-56 68 38 0
-57 76 0
-58 -76 0
-59 76 0
-60 -76 0
-61 -76 0
-62 76 0
-63 -76 38 0
-63 76 -38 0
-64 -76 -38 0
-64 76 38 0
-43 68 76 -84 0
-43 68 -76 -84 0
-43 -68 76 -84 0
-43 -68 -76 84 0
-44 68 76 -84 0
-44 68 -76 84 0
-44 -68 76 84 0
-44 -68 -76 84 0
-45 68 76 -84 0
-45 68 -76 84 0
-45 -68 76 84 0
-45 -68 -76 -84 0
-46 68 76 84 0
-46 68 -76 84 0
-46 -68 76 84 0
-46 -68 -76 -84 0
-47 68 76 84 0
-47 68 -76 -84 0
-47 -68 76 -84 0
-47 -68 -76 -84 0
-48 68 76 84 0
-48 68 -76 -84 0
-48 -68 76 -84 0
-48 -68 -76 84 0
-49 -69 0
-50 69 0
-51 -69 0
-52 69 0
-53 69 0
-54 -69 0
-55 -69 39 0
-55 69 -39 0
-56 -69 -39 0
-56 69 39 0
-57 -77 0
-58 77 0
-59 -77 0
-60 77 0
-61 77 0
-62 -77 0
-63 -77 39 0
-63 77 -39 0
-64 -77 -39 0
-64 77 39 0
-43 69 77 -85 0
-43 69 -77 -85 0
-43 -69 77 -85 0
-43 -69 -77 85 0
-44 69 77 -85 0
-44 69 -77 85 0
-44 -69 77 85 0
-44 -69 -77 85 0
-45 69 77 -85 0
-45 69 -77 85 0
-45 -69 77 85 0
-45 -69 -77 -85 0
-46 69 77 85 0
-46 69 -77 85 0
-46 -69 77 85 0
-46 -69 -77 -85 0
-47 69 77 85 0
-47 69 -77 -85 0
-47 -69 77 -85 0
-47 -69 -77 -85 0
-48 69 77 85 0
-48 69 -77 -85 0
-48 -69 77 -85 0
-48 -69 -77 85 0
-49 70 0
-50 -70 0
-51 -70 0
-52 70 0
-53 70 0
-54 -70 0
-55 -70 40 0
-55 70 -40 0
-56 -70 -40 0
-56 70 40 0
-57 78 0
-58 -78 0
-59 -78 0
-60 78 0
-61 78 0
-62 -78 0
-63 -78 40 0
-63 78 -40 0
-64 -78 -40 0
-64 78 40 0
-43 70 78 -86 0
-43 70 -78 -86 0
-43 -70 78 -86 0
-43 -70 -78 86 0
-44 70 78 -86 0
-44 70 -78 86 0
-44 -70 78 86 0
-44 -70 -78 86 0
-45 70 78 -86 0
-45 70 -78 86 0
-45 -70 78 86 0
-45 -70 -78 -86 0
-46 70 78 86 0
-46 70 -78 86 0
-46 -70 78 86 0
-46 -70 -78 -86 0
-47 70 78 86 0
-47 70 -78 -86 0
-47 -70 78 -86 0
-47 -70 -78 -86 0
-48 70 78 86 0
-48 70 -78 -86 0
-48 -70 78 -86 0
-48 -70 -78 86 0
-49 -71 0
-50 71 0
-51 71 0
-52 -71 0
-53 71 0
-54 -71 0
-55 -71 41 0
-55 71 -41 0
-56 -71 -41 0
-56 71 41 0
-57 -79 0
-58 79 0
-59 79 0
-60 -79 0
-61 79 0
-62 -79 0
-63 -79 41 0
-63 79 -41 0
-64 -79 -41 0
-64 79 41 0
-43 71 79 -87 0
-43 71 -79 -87 0
-43 -71 79 -87 0
-43 -71 -79 87 0
-44 71 79 -87 0
-44 71 -79 87 0
-44 -71 79 87 0
-44 -71 -79 87 0
-45 71 79 -87 0
-45 71 -79 87 0
-45 -71 79 87 0
-45 -71 -79 -87 0
-46 71 79 87 0
-46 71 -79 87 0
-46 -71 79 87 0
-46 -71 -79 -87 0
-47 71 79 87 0
-47 71 -79 -87 0
-47 -71 79 -87 0
-47 -71 -79 -87 0
-48 71 79 87 0
-48 71 -79 -87 0
-48 -71 79 -87 0
-48 -71 -79 87 0
-49 72 0
-50 -72 0
-51 72 0
-52 -72 0
-53 72 0
-54 -72 0
-55 -72 42 0
-55 72 -42 0
-56 -72 -42 0
-56 72 42 0
-57 80 0
-58 -80 0
-59 80 0
-60 -80 0
-61 80 0
-62 -80 0
-63 -80 42 0
-63 80 -42 0
-64 -80 -42 0
-64 80 42 0
-43 72 80 -88 0
-43 72 -80 -88 0
-43 -72 80 -88 0
-43 -72 -80 88 0
-44 72 80 -88 0
-44 72 -80 88 0
-44 -72 80 88 0
-44 -72 -80 88 0
-45 72 80 -88 0
-45 72 -80 88 0
-45 -72 80 88 0
-45 -72 -80 -88 0
-46 72 80 88 0
-46 72 -80 88 0
-46 -72 80 88 0
-46 -72 -80 -88 0
-47 72 80 88 0
-47 72 -80 -88 0
-47 -72 80 -88 0
-47 -72 -80 -88 0
-48 72 80 88 0
-48 72 -80 -88 0
-48 -72 80 -88 0
-48 -72 -80 88 0
89 90 91 92 93 94 0
-89 -90 0
-89 -91 0
-89 -92 0
-89 -93 0
-89 -94 0
-90 -91 0
-90 -92 0
-90 -93 0
-90 -94 0
-91 -92 0
-91 -93 0
-91 -94 0
-92 -93 0
-92 -94 0
-93 -94 0
95 96 97 98 99 100 101 102 103 104 0
-95 -96 0
-95 -97 0
-95 -98 0
-95 -99 0
-95 -100 0
-95 -101 0
-95 -102 0
-95 -103 0
-95 -104 0
-96 -97 0
-96 -98 0
-96 -99 0
-96 -100 0
-96 -101 0
-96 -102 0
-96 -103 0
-96 -104 0
-97 -98 0
-97 -99 0
-97 -100 0
-97 -101 0
-97 -102 0
-97 -103 0
-97 -104 0
-98 -99 0
-98 -100 0
-98 -101 0
-98 -102 0
-98 -103 0
-98 -104 0
-99 -100 0
-99 -101 0
-99 -102 0
-99 -103 0
-99 -104 0
-100 -101 0
-100 -102 0
-100 -103 0
-100 -104 0
-101 -102 0
-101 -103 0
-101 -104 0
-102 -103 0
-102 -104 0
-103 -104 0
105 106 107 108 109 110 111 112 113 114 0
-105 -106 0
-105 -107 0
-105 -108 0
-105 -109 0
-105 -110 0
-105 -111 0
-105 -112 0
-105 -113 0
-105 -114 0
-106 -107 0
-106 -108 0
-106 -109 0
-106 -110 0
-106 -111 0
-106 -112 0
-106 -113 0
-106 -114 0
-107 -108 0
-107 -109 0
-107 -110 0
-107 -111 0
-107 -112 0
-107 -113 0
-107 -114 0
-108 -109 0
-108 -110 0
-108 -111 0
-108 -112 0
-108 -113 0
-108 -114 0
-109 -110 0
-109 -111 0
-109 -112 0
-109 -113 0
-109 -114 0
-110 -111 0
-110 -112 0
-110 -113 0
-110 -114 0
-111 -112 0
-111 -113 0
-111 -114 0
-112 -113 0
-112 -114 0
-113 -114 0
-96 -105 0
-97 -105 0
-97 -106 0
-98 -105 0
-98 -106 0
-98 -107 0
-99 -105 0
-99 -106 0
-99 -107 0
-99 -108 0
-100 -105 0
-100 -106 0
-100 -107 0
-100 -108 0
-100 -109 0
-101 -105 0
-101 -106 0
-101 -107 0
-101 -108 0
-101 -109 0
-101 -110 0
-102 -105 0
-102 -106 0
-102 -107 0
-102 -108 0
-102 -109 0
-102 -110 0
-102 -111 0
-103 -105 0
-103 -106 0
-103 -107 0
-103 -108 0
-103 -109 0
-103 -110 0
-103 -111 0
-103 -112 0
-104 -105 0
-104 -106 0
-104 -107 0
-104 -108 0
-104 -109 0
-104 -110 0
-104 -111 0
-104 -112 0
-104 -113 0
-95 -115 0
-96 115 0
-97 -115 0
-98 115 0
-99 -115 0
-100 115 0
-101 -115 35 0
-101 115 -35 0
-102 -115 -35 0
-102 115 35 0
-103 -115 81 0
-103 115 -81 0
-104 -115 -81 0
-104 115 81 0
-105 -123 0
-106 123 0
-107 -123 0
-108 123 0
-109 -123 0
-110 123 0
-111 -123 35 0
-111 123 -35 0
-112 -123 -35 0
-112 123 35 0
-113 -123 81 0
-113 123 -81 0
-114 -123 -81 0
-114 123 81 0
-89 115 123 -131 0
-89 115 -123 -131 0
-89 -115 123 -131 0
-89 -115 -123 131 0
-90 115 123 -131 0
-90 115 -123 131 0
-90 -115 123 131 0
-90 -115 -123 131 0
-91 115 123 -131 0
-91 115 -123 131 0
-91 -115 123 131 0
-91 -115 -123 -131 0
-92 115 123 131 0
-92 115 -123 131 0
-92 -115 123 131 0
-92 -115 -123 -131 0
-93 115 123 131 0
-93 115 -123 -131 0
-93 -115 123 -131 0
-93 -115 -123 -131 0
-94 115 123 131 0
-94 115 -123 -131 0
-94 -115 123 -131 0
-94 -115 -123 131 0
-95 116 0
-96 -116 0
-97 -116 0
-98 116 0
-99 -116 0
-100 116 0
-101 -116 36 0
-101 116 -36 0
-102 -116 -36 0
-102 116 36 0
-103 -116 82 0
-103 116 -82 0
-104 -116 -82 0
-104 116 82 0
-105 124 0
-106 -124 0
-107 -124 0
-108 124 0
-109 -124 0
-110 124 0
-111 -124 36 0
-111 124 -36 0
-112 -124 -36 0
-112 124 36 0
-113 -124 82 0
-113 124 -82 0
-114 -124 -82 0
-114 124 82 0
-89 116 124 -132 0
-89 116 -124 -132 0
-89 -116 124 -132 0
-89 -116 -124 132 0
-90 116 124 -132 0
-90 116 -124 132 0
-90 -116 124 132 0
-90 -116 -124 132 0
-91 116 124 -132 0
-91 116 -124 132 0
-91 -116 124 132 0
-91 -116 -124 -132 0
-92 116 124 132 0
-92 116 -124 132 0
-92 -116 124 132 0
-92 -116 -124 -132 0
-93 116 124 132 0
-93 116 -124 -132 0
-93 -116 124 -132 0
-93 -116 -124 -132 0
-94 116 124 132 0
-94 116 -124 -132 0
-94 -116 124 -132 0
-94 -116 -124 132 0
-95 -117 0
-96 117 0
-97 117 0
-98 -117 0
-99 -117 0
-100 117 0
-101 -117 37 0
-101 117 -37 0
-102 -117 -37 0
-102 117 37 0
-103 -117 83 0
-103 117 -83 0
-104 -117 -83 0
-104 117 83 0
-105 -125 0
-106 125 0
-107 125 0
-108 -125 0
-109 -125 0
-110 125 0
-111 -125 37 0
-111 125 -37 0
-112 -125 -37 0
-112 125 37 0
-113 -125 83 0
-113 125 -83 0
-114 -125 -83 0
-114 125 83 0
-89 117 125 -133 0
-89 117 -125 -133 0
-89 -117 125 -133 0
-89 -117 -125 133 0
-90 117 125 -133 0
-90 117 -125 133 0
-90 -117 125 133 0
-90 -117 -125 133 0
-91 117 125 -133 0
-91 117 -125 133 0
-91 -117 125 133 0
-91 -117 -125 -133 0
-92 117 125 133 0
-92 117 -125 133 0
-92 -117 125 133 0
-92 -117 -125 -133 0
-93 117 125 133 0
-93 117 -125 -133 0
-93 -117 125 -133 0
-93 -117 -125 -133 0
-94 117 125 133 0
-94 117 -125 -133 0
-94 -117 125 -133 0
-94 -117 -125 133 0
-95 118 0
-96 -118 0
-97 118 0
-98 -118 0
-99 -118 0
-100 118 0
-101 -118 38 0
-101 118 -38 0
-102 -118 -38 0
-102 118 38 0
-103 -118 84 0
-103 118 -84 0
-104 -118 -84 0
-104 118 84 0
-105 126 0
-106 -126 0
-107 126 0
-108 -126 0
-109 -126 0
-110 126 0
-111 -126 38 0
-111 126 -38 0
-112 -126 -38 0
-112 126 38 0
-113 -126 84 0
-113 126 -84 0
-114 -126 -84 0
-114 126 84 0
-89 118 126 -134 0
-89 118 -126 -134 0
-89 -118 126 -134 0
-89 -118 -126 134 0
-90 118 126 -134 0
-90 118 -126 134 0
-90 -118 126 134 0
-90 -118 -126 134 0
-91 118 126 -134 0
-91 118 -126 134 0
-91 -118 126 134 0
-91 -118 -126 -134 0
-92 118 126 134 0
-92 118 -126 134 0
-92 -118 126 134 0
-92 -118 -126 -134 0
-93 118 126 134 0
-93 118 -126 -134 0
-93 -118 126 -134 0
-93 -118 -126 -134 0
-94 118 126 134 0
-94 118 -126 -134 0
-94 -118 126 -134 0
-94 -118 -126 134 0
-95 -119 0
-96 119 0
-97 -119 0
-98 119 0
-99 119 0
-100 -119 0
-101 -119 39 0
-101 119 -39 0
-102 -119 -39 0
-102 119 39 0
-103 -119 85 0
-103 119 -85 0
-104 -119 -85 0
-104 119 85 0
-105 -127 0
-106 127 0
-107 -127 0
-108 127 0
-109 127 0
-110 -127 0
-111 -127 39 0
-111 127 -39 0
-112 -127 -39 0
-112 127 39 0
-113 -127 85 0
-113 127 -85 0
-114 -127 -85 0
-114 127 85 0
-89 119 127 -135 0
-89 119 -127 -135 0
-89 -119 127 -135 0
-89 -119 -127 135 0
-90 119 127 -135 0
-90 119 -127 135 0
-90 -119 127 135 0
-90 -119 -127 135 0
-91 119 127 -135 0
-91 119 -127 135 0
-91 -119 127 135 0
-91 -119 -127 -135 0
-92 119 127 135 0
-92 119 -127 135 0
-92 -119 127 135 0
-92 -119 -127 -135 0
-93 119 127 135 0
-93 119 -127 -135 0
-93 -119 127 -135 0
-93 -119 -127 -135 0
-94 119 127 135 0
-94 119 -127 -135 0
-94 -119 127 -135 0
-94 -119 -127 135 0
-95 120 0
-96 -120 0
-97 -120 0
-98 120 0
-99 120 0
-100 -120 0
-101 -120 40 0
-101 120 -40 0
-102 -120 -40 0
-102 120 40 0
-103 -120 86 0
-103 120 -86 0
-104 -120 -86 0
-104 120 86 0
-105 128 0
-106 -128 0
-107 -128 0
-108 128 0
-109 128 0
-110 -128 0
-111 -128 40 0
-111 128 -40 0
-112 -128 -40 0
-112 128 40 0
-113 -128 86 0
-113 128 -86 0
-114 -128 -86 0
-114 128 86 0
-89 120 128 -136 0
-89 120 -128 -136 0
-89 -120 128 -136 0
-89 -120 -128 136 0
-90 120 128 -136 0
-90 120 -128 136 0
-90 -120 128 136 0
-90 -120 -128 136 0
-91 120 128 -136 0
-91 120 -128 136 0
-91 -120 128 136 0
-91 -120 -128 -136 0
-92 120 128 136 0
-92 120 -128 136 0
-92 -120 128 136 0
-92 -120 -128 -136 0
-93 120 128 136 0
-93 120 -128 -136 0
-93 -120 128 -136 0
-93 -120 -128 -136 0
-94 120 128 136 0
-94 120 -128 -136 0
-94 -120 128 -136 0
-94 -120 -128 136 0
-95 -121 0
-96 121 0
-97 121 0
-98 -121 0
-99 121 0
-100 -121 0
-101 -121 41 0
-101 121 -41 0
-102 -121 -41 0
-102 121 41 0
-103 -121 87 0
-103 121 -87 0
-104 -121 -87 0
-104 121 87 0
-105 -129 0
-106 129 0
-107 129 0
-108 -129 0
-109 129 0
-110 -129 0
-111 -129 41 0
-111 129 -41 0
-112 -129 -41 0
-112 129 41 0
-113 -129 87 0
-113 129 -87 0
-114 -129 -87 0
-114 129 87 0
-89 121 129 -137 0
-89 121 -129 -137 0
-89 -121 129 -137 0
-89 -121 -129 137 0
-90 121 129 -137 0
-90 121 -129 137 0
-90 -121 129 137 0
-90 -121 -129 137 0
-91 121 129 -137 0
-91 121 -129 137 0
-91 -121 129 137 0
-91 -121 -129 -137 0
-92 121 129 137 0
-92 121 -129 137 0
-92 -121 129 137 0
-92 -121 -129 -137 0
-93 121 129 137 0
-93 121 -129 -137 0
-93 -121 129 -137 0
-93 -121 -129 -137 0
-94 121 129 137 0
-94 121 -129 -137 0
-94 -121 129 -137 0
-94 -121 -129 137 0
-95 122 0
-96 -122 0
-97 122 0
-98 -122 0
-99 122 0
-100 -122 0
-101 -122 42 0
-101 122 -42 0
-102 -122 -42 0
-102 122 42 0
-103 -122 88 0
-103 122 -88 0
-104 -122 -88 0
-104 122 88 0
-105 130 0
-106 -130 0
-107 130 0
-108 -130 0
-109 130 0
-110 -130 0
-111 -130 42 0
-111 130 -42 0
-112 -130 -42 0
-112 130 42 0
-113 -130 88 0
-113 130 -88 0
-114 -130 -88 0
-114 130 88 0
-89 122 130 -138 0
-89 122 -130 -138 0
-89 -122 130 -138 0
-89 -122 -130 138 0
-90 122 130 -138 0
-90 122 -130 138 0
-90 -122 130 138 0
-90 -122 -130 138 0
-91 122 130 -138 0
-91 122 -130 138 0
-91 -122 130 138 0
-91 -122 -130 -138 0
-92 122 130 138 0
-92 122 -130 138 0
-92 -122 130 138 0
-92 -122 -130 -138 0
-93 122 130 138 0
-93 122 -130 -138 0
-93 -122 130 -138 0
-93 -122 -130 -138 0
-94 122 130 138 0
-94 122 -130 -138 0
-94 -122 130 -138 0
-94 -122 -130 138 0
139 140 141 142 143 144 0
-139 -140 0
-139 -141 0
-139 -142 0
-139 -143 0
-139 -144 0
-140 -141 0
-140 -142 0
-140 -143 0
-140 -144 0
-141 -142 0
-141 -143 0
-141 -144 0
-142 -143 0
-142 -144 0
-143 -144 0
145 146 147 148 149 150 151 152 153 154 155 156 0
-145 -146 0
-145 -147 0
-145 -148 0
-145 -149 0
-145 -150 0
-145 -151 0
-145 -152 0
-145 -153 0
-145 -154 0
-145 -155 0
-145 -156 0
-146 -147 0
-146 -148 0
-146 -149 0
-146 -150 0
-146 -151 0
-146 -152 0
-146 -153 0
-146 -154 0
-146 -155 0
-146 -156 0
-147 -148 0
-147 -149 0
-147 -150 0
-147 -151 0
-147 -152 0
-147 -153 0
-147 -154 0
-147 -155 0
-147 -156 0
-148 -149 0
-148 -150 0
-148 -151 0
-148 -152 0
-148 -153 0
-148 -154 0
-148 -155 0
-148 -156 0
-149 -150 0
-149 -151 0
-149 -152 0
-149 -153 0
-149 -154 0
-149 -155 0
-149 -156 0
-150 -151 0
-150 -152 0
-150 -153 0
-150 -154 0
-150 -155 0
-150 -156 0
-151 -152 0
-151 -153 0
-151 -154 0
-151 -155 0
-151 -156 0
-152 -153 0
-152 -154 0
-152 -155 0
-152 -156 0
-153 -154 0
-153 -155 0
-153 -156 0
-154 -155 0
-154 -156 0
-155 -156 0
157 158 159 160 161 162 163 164 165 166 167 168 0
-157 -158 0
-157 -159 0
-157 -160 0
-157 -161 0
-157 -162 0
-157 -163 0
-157 -164 0
-157 -165 0
-157 -166 0
-157 -167 0
-157 -168 0
-158 -159 0
-158 -160 0
-158 -161 0
-158 -162 0
-158 -163 0
-158 -164 0
-158 -165 0
-158 -166 0
-158 -167 0
-158 -168 0
-159 -160 0
-159 -161 0
-159 -162 0
-159 -163 0
-159 -164 0
-159 -165 0
-159 -166 0
-159 -167 0
-159 -168 0
-160 -161 0
-160 -162 0
-160 -163 0
-160 -164 0
-160 -165 0
-160 -166 0
-160 -167 0
-160 -168 0
-161 -162 0
-161 -163 0
-161 -164 0
-161 -165 0
-161 -166 0
-161 -167 0
-161 -168 0
-162 -163 0
-162 -164 0
-162 -165 0
-162 -166 0
-162 -167 0
-162 -168 0
-163 -164 0
-163 -165 0
-163 -166 0
-163 -167 0
-163 -168 0
-164 -165 0
-164 -166 0
-164 -167 0
-164 -168 0
-165 -166 0
-165 -167 0
-165 -168 0
-166 -167 0
-166 -168 0
-167 -168 0
-146 -157 0
-147 -157 0
-147 -158 0
-148 -157 0
-148 -158 0
-148 -159 0
-149 -157 0
-149 -158 0
-149 -159 0
-149 -160 0
-150 -157 0
-150 -158 0
-150 -159 0
-150 -160 0
-150 -161 0
-151 -157 0
-151 -158 0
-151 -159 0
-151 -160 0
-151 -161 0
-151 -162 0
-152 -157 0
-152 -158 0
-152 -159 0
-152 -160 0
-152 -161 0
-152 -162 0
-152 -163 0
-153 -157 0
-153 -158 0
-153 -159 0
-153 -160 0
-153 -161 0
-153 -162 0
-153 -163 0
-153 -164 0
-154 -157 0
-154 -158 0
-154 -159 0
-154 -160 0
-154 -161 0
-154 -162 0
-154 -163 0
-154 -164 0
-154 -165 0
-155 -157 0
-155 -158 0
-155 -159 0
-155 -160 0
-155 -161 0
-155 -162 0
-155 -163 0
-155 -164 0
-155 -165 0
-155 -166 0
-156 -157 0
-156 -158 0
-156 -159 0
-156 -160 0
-156 -161 0
-156 -162 0
-156 -163 0
-156 -164 0
-156 -165 0
-156 -166 0
-156 -167 0
-145 -169 0
-146 169 0
-147 -169 0
-148 169 0
-149 -169 0
-150 169 0
-151 -169 35 0
-151 169 -35 0
-152 -169 -35 0
-152 169 35 0
-153 -169 81 0
-153 169 -81 0
-154 -169 -81 0
-154 169 81 0
-155 -169 131 0
-155 169 -131 0
-156 -169 -131 0
-156 169 131 0
-157 -177 0
-158 177 0
-159 -177 0
-160 177 0
-161 -177 0
-162 177 0
-163 -177 35 0
-163 177 -35 0
-164 -177 -35 0
-164 177 35 0
-165 -177 81 0
-165 177 -81 0
-166 -177 -81 0
-166 177 81 0
-167 -177 131 0
-167 177 -131 0
-168 -177 -131 0
-168 177 131 0
-139 169 177 -185 0
-139 169 -177 -185 0
-139 -169 177 -185 0
-139 -169 -177 185 0
-140 169 177 -185 0
-140 169 -177 185 0
-140 -169 177 185 0
-140 -169 -177 185 0
-141 169 177 -185 0
-141 169 -177 185 0
-141 -169 177 185 0
-141 -169 -177 -185 0
-142 169 177 185 0
-142 169 -177 185 0
-142 -169 177 185 0
-142 -169 -177 -185 0
-143 169 177 185 0
-143 169 -177 -185 0
-143 -169 177 -185 0
-143 -169 -177 -185 0
-144 169 177 185 0
-144 169 -177 -185 0
-144 -169 177 -185 0
-144 -169 -177 185 0
-145 170 0
-146 -170 0
-147 -170 0
-148 170 0
-149 -170 0
-150 170 0
-151 -170 36 0
-151 170 -36 0
-152 -170 -36 0
-152 170 36 0
-153 -170 82 0
-153 170 -82 0
-154 -170 -82 0
-154 170 82 0
-155 -170 132 0
-155 170 -132 0
-156 -170 -132 0
-156 170 132 0
-157 178 0
-158 -178 0
-159 -178 0
-160 178 0
-161 -178 0
-162 178 0
-163 -178 36 0
-163 178 -36 0
-164 -178 -36 0
-164 178 36 0
-165 -178 82 0
-165 178 -82 0
-166 -178 -82 0
-166 178 82 0
-167 -178 132 0
-167 178 -132 0
-168 -178 -132 0
-168 178 132 0
-139 170 178 -186 0
-139 170 -178 -186 0
-139 -170 178 -186 0
-139 -170 -178 186 0
-140 170 178 -186 0
-140 170 -178 186 0
-140 -170 178 186 0
-140 -170 -178 186 0
-141 170 178 -186 0
-141 170 -178 186 0
-141 -170 178 186 0
-141 -170 -178 -186 0
-142 170 178 186 0
-142 170 -178 186 0
-142 -170 178 186 0
-142 -170 -178 -186 0
-143 170 178 186 0
-143 170 -178 -186 0
-143 -170 178 -186 0
-143 -170 -178 -186 0
-144 170 178 186 0
-144 170 -178 -186 0
-144 -170 178 -186 0
-144 -170 -178 186 0
-145 -171 0
-146 171 0
-147 171 0
-148 -171 0
-149 -171 0
-150 171 0
-151 -171 37 0
-151 171 -37 0
-152 -171 -37 0
-152 171 37 0
-153 -171 83 0
-153 171 -83 0
-154 -171 -83 0
-154 171 83 0
-155 -171 133 0
-155 171 -133 0
-156 -171 -133 0
-156 171 133 0
-157 -179 0
-158 179 0
-159 179 0
-160 -179 0
-161 -179 0
-162 179 0
-163 -179 37 0
-163 179 -37 0
-164 -179 -37 0
-164 179 37 0
-165 -179 83 0
-165 179 -83 0
-166 -179 -83 0
-166 179 83 0
-167 -179 133 0
-167 179 -133 0
-168 -179 -133 0
-168 179 133 0
-139 171 179 -187 0
-139 171 -179 -187 0
-139 -171 179 -187 0
-139 -171 -179 187 0
-140 171 179 -187 0
-140 171 -179 187 0
-140 -171 179 187 0
-140 -171 -179 187 0
-141 171 179 -187 0
-141 171 -179 187 0
-141 -171 179 187 0
-141 -171 -179 -187 0
-142 171 179 187 0
-142 171 -179 187 0
-142 -171 179 187 0
-142 -171 -179 -187 0
-143 171 179 187 0
-143 171 -179 -187 0
-143 -171 179 -187 0
-143 -171 -179 -187 0
-144 171 179 187 0
-144 171 -179 -187 0
-144 -171 179 -187 0
-144 -171 -179 187 0
-145 172 0
-146 -172 0
-147 172 0
-148 -172 0
-149 -172 0
-150 172 0
-151 -172 38 0
-151 172 -38 0
-152 -172 -38 0
-152 172 38 0
-153 -172 84 0
-153 172 -84 0
-154 -172 -84 0
-154 172 84 0
-155 -172 134 0
-155 172 -134 0
-156 -172 -134 0
-156 172 134 0
-157 180 0
-158 -180 0
-159 180 0
-160 -180 0
-161 -180 0
-162 180 0
-163 -180 38 0
-163 180 -38 0
-164 -180 -38 0
-164 180 38 0
-165 -180 84 0
-165 180 -84 0
-166 -180 -84 0
-166 180 84 0
-167 -180 134 0
-167 180 -134 0
-168 -180 -134 0
-168 180 134 0
-139 172 180 -188 0
-139 172 -180 -188 0
-139 -172 180 -188 0
-139 -172 -180 188 0
-140 172 180 -188 0
-140 172 -180 188 0
-140 -172 180 188 0
-140 -172 -180 188 0
-141 172 180 -188 0
-141 172 -180 188 0
-141 -172 180 188 0
-141 -172 -180 -188 0
-142 172 180 188 0
-142 172 -180 188 0
-142 -172 180 188 0
-142 -172 -180 -188 0
-143 172 180 188 0
-143 172 -180 -188 0
-143 -172 180 -188 0
-143 -172 -180 -188 0
-144 172 180 188 0
-144 172 -180 -188 0
-144 -172 180 -188 0
-144 -172 -180 188 0
-145 -173 0
-146 173 0
-147 -173 0
-148 173 0
-149 173 0
-150 -173 0
-151 -173 39 0
-151 173 -39 0
-152 -173 -39 0
-152 173 39 0
-153 -173 85 0
-153 173 -85 0
-154 -173 -85 0
-154 173 85 0
-155 -173 135 0
-155 173 -135 0
-156 -173 -135 0
-156 173 135 0
-157 -181 0
-158 181 0
-159 -181 0
-160 181 0
-161 181 0
-162 -181 0
-163 -181 39 0
-163 181 -39 0
-164 -181 -39 0
-164 181 39 0
-165 -181 85 0
-165 181 -85 0
-166 -181 -85 0
-166 181 85 0
-167 -181 135 0
-167 181 -135 0
-168 -181 -135 0
-168 181 135 0
-139 173 181 -189 0
-139 173 -181 -189 0
-139 -173 181 -189 0
-139 -173 -181 189 0
-140 173 181 -189 0
-140 173 -181 189 0
-140 -173 181 189 0
-140 -173 -181 189 0
-141 173 181 -189 0
-141 173 -181 189 0
-141 -173 181 189 0
-141 -173 -181 -189 0
-142 173 181 189 0
-142 173 -181 189 0
-142 -173 181 189 0
-142 -173 -181 -189 0
-143 173 181 189 0
-143 173 -181 -189 0
-143 -173 181 -189 0
-143 -173 -181 -189 0
-144 173 181 189 0
-144 173 -181 -189 0
-144 -173 181 -189 0
-144 -173 -181 189 0
-145 174 0
-146 -174 0
-147 -174 0
-148 174 0
-149 174 0
-150 -174 0
-151 -174 40 0
-151 174 -40 0
-152 -174 -40 0
-152 174 40 0
-153 -174 86 0
-153 174 -86 0
-154 -174 -86 0
-154 174 86 0
-155 -174 136 0
-155 174 -136 0
-156 -174 -136 0
-156 174 136 0
-157 182 0
-158 -182 0
-159 -182 0
-160 182 0
-161 182 0
-162 -182 0
-163 -182 40 0
-163 182 -40 0
-164 -182 -40 0
-164 182 40 0
-165 -182 86 0
-165 182 -86 0
-166 -182 -86 0
-166 182 86 0
-167 -182 136 0
-167 182 -136 0
-168 -182 -136 0
-168 182 136 0
-139 174 182 -190 0
-139 174 -182 -190 0
-139 -174 182 -190 0
-139 -174 -182 190 0
-140 174 182 -190 0
-140 174 -182 190 0
-140 -174 182 190 0
-140 -174 -182 190 0
-141 174 182 -190 0
-141 174 -182 190 0
-141 -174 182 190 0
-141 -174 -182 -190 0
-142 174 182 190 0
-142 174 -182 190 0
-142 -174 182 190 0
-142 -174 -182 -190 0
-143 174 182 190 0
-143 174 -182 -190 0
-143 -174 182 -190 0
-143 -174 -182 -190 0
-144 174 182 190 0
-144 174 -182 -190 0
-144 -174 182 -190 0
-144 -174 -182 190 0
-145 -175 0
-146 175 0
-147 175 0
-148 -175 0
-149 175 0
-150 -175 0
-151 -175 41 0
-151 175 -41 0
-152 -175 -41 0
-152 175 41 0
-153 -175 87 0
-153 175 -87 0
-154 -175 -87 0
-154 175 87 0
-155 -175 137 0
-155 175 -137 0
-156 -175 -137 0
-156 175 137 0
-157 -183 0
-158 183 0
-159 183 0
-160 -183 0
-161 183 0
-162 -183 0
-163 -183 41 0
-163 183 -41 0
-164 -183 -41 0
-164 183 41 0
-165 -183 87 0
-165 183 -87 0
-166 -183 -87 0
-166 183 87 0
-167 -183 137 0
-167 183 -137 0
-168 -183 -137 0
-168 183 137 0
-139 175 183 -191 0
-139 175 -183 -191 0
-139 -175 183 -191 0
-139 -175 -183 191 0
-140 175 183 -191 0
-140 175 -183 191 0
-140 -175 183 191 0
-140 -175 -183 191 0
-141 175 183 -191 0
-141 175 -183 191 0
-141 -175 183 191 0
-141 -175 -183 -191 0
-142 175 183 191 0
-142 175 -183 191 0
-142 -175 183 191 0
-142 -175 -183 -191 0
-143 175 183 191 0
-143 175 -183 -191 0
-143 -175 183 -191 0
-143 -175 -183 -191 0
-144 175 183 191 0
-144 175 -183 -191 0
-144 -175 183 -191 0
-144 -175 -183 191 0
-145 176 0
-146 -176 0
-147 176 0
-148 -176 0
-149 176 0
-150 -176 0
-151 -176 42 0
-151 176 -42 0
-152 -176 -42 0
-152 176 42 0
-153 -176 88 0
-153 176 -88 0
-154 -176 -88 0
-154 176 88 0
-155 -176 138 0
-155 176 -138 0
-156 -176 -138 0
-156 176 138 0
-157 184 0
-158 -184 0
-159 184 0
-160 -184 0
-161 184 0
-162 -184 0
-163 -184 42 0
-163 184 -42 0
-164 -184 -42 0
-164 184 42 0
-165 -184 88 0
-165 184 -88 0
-166 -184 -88 0
-166 184 88 0
-167 -184 138 0
-167 184 -138 0
-168 -184 -138 0
-168 184 138 0
-139 176 184 -192 0
-139 176 -184 -192 0
-139 -176 184 -192 0
-139 -176 -184 192 0
-140 176 184 -192 0
-140 176 -184 192 0
-140 -176 184 192 0
-140 -176 -184 192 0
-141 176 184 -192 0
-141 176 -184 192 0
-141 -176 184 192 0
-141 -176 -184 -192 0
-142 176 184 192 0
-142 176 -184 192 0
-142 -176 184 192 0
-142 -176 -184 -192 0
-143 176 184 192 0
-143 176 -184 -192 0
-143 -176 184 -192 0
-143 -176 -184 -192 0
-144 176 184 192 0
-144 176 -184 -192 0
-144 -176 184 -192 0
-144 -176 -184 192 0
193 194 195 196 197 198 199 200 201 202 203 204 205 206 0
-193 -194 0
-193 -195 0
-193 -196 0
-193 -197 0
-193 -198 0
-193 -199 0
-193 -200 0
-193 -201 0
-193 -202 0
-193 -203 0
-193 -204 0
-193 -205 0
-193 -206 0
-194 -195 0
-194 -196 0
-194 -197 0
-194 -198 0
-194 -199 0
-194 -200 0
-194 -201 0
-194 -202 0
-194 -203 0
-194 -204 0
-194 -205 0
-194 -206 0
-195 -196 0
-195 -197 0
-195 -198 0
-195 -199 0
-195 -200 0
-195 -201 0
-195 -202 0
-195 -203 0
-195 -204 0
-195 -205 0
-195 -206 0
-196 -197 0
-196 -198 0
-196 -199 0
-196 -200 0
-196 -201 0
-196 -202 0
-196 -203 0
-196 -204 0
-196 -205 0
-196 -206 0
-197 -198 0
-197 -199 0
-197 -200 0
-197 -201 0
-197 -202 0
-197 -203 0
-197 -204 0
-197 -205 0
-197 -206 0
-198 -199 0
-198 -200 0
-198 -201 0
-198 -202 0
-198 -203 0
-198 -204 0
-198 -205 0
-198 -206 0
-199 -200 0
-199 -201 0
-199 -202 0
-199 -203 0
-199 -204 0
-199 -205 0
-199 -206 0
-200 -201 0
-200 -202 0
-200 -203 0
-200 -204 0
-200 -205 0
-200 -206 0
-201 -202 0
-201 -203 0
-201 -204 0
-201 -205 0
-201 -206 0
-202 -203 0
-202 -204 0
-202 -205 0
-202 -206 0
-203 -204 0
-203 -205 0
-203 -206 0
-204 -205 0
-204 -206 0
-205 -206 0
-193 -207 0
-194 207 0
-195 -207 0
-196 207 0
-197 -207 0
-198 207 0
-199 -207 35 0
-199 207 -35 0
-200 -207 -35 0
-200 207 35 0
-201 -207 81 0
-201 207 -81 0
-202 -207 -81 0
-202 207 81 0
-203 -207 131 0
-203 207 -131 0
-204 -207 -131 0
-204 207 131 0
-205 -207 185 0
-205 207 -185 0
-206 -207 -185 0
-206 207 185 0
-193 208 0
-194 -208 0
-195 -208 0
-196 208 0
-197 -208 0
-198 208 0
-199 -208 36 0
-199 208 -36 0
-200 -208 -36 0
-200 208 36 0
-201 -208 82 0
-201 208 -82 0
-202 -208 -82 0
-202 208 82 0
-203 -208 132 0
-203 208 -132 0
-204 -208 -132 0
-204 208 132 0
-205 -208 186 0
-205 208 -186 0
-206 -208 -186 0
-206 208 186 0
-193 -209 0
-194 209 0
-195 209 0
-196 -209 0
-197 -209 0
-198 209 0
-199 -209 37 0
-199 209 -37 0
-200 -209 -37 0
-200 209 37 0
-201 -209 83 0
-201 209 -83 0
-202 -209 -83 0
-202 209 83 0
-203 -209 133 0
-203 209 -133 0
-204 -209 -133 0
-204 209 133 0
-205 -209 187 0
-205 209 -187 0
-206 -209 -187 0
-206 209 187 0
-193 210 0
-194 -210 0
-195 210 0
-196 -210 0
-197 -210 0
-198 210 0
-199 -210 38 0
-199 210 -38 0
-200 -210 -38 0
-200 210 38 0
-201 -210 84 0
-201 210 -84 0
-202 -210 -84 0
-202 210 84 0
-203 -210 134 0
-203 210 -134 0
-204 -210 -134 0
-204 210 134 0
-205 -210 188 0
-205 210 -188 0
-206 -210 -188 0
-206 210 188 0
-193 -211 0
-194 211 0
-195 -211 0
-196 211 0
-197 211 0
-198 -211 0
-199 -211 39 0
-199 211 -39 0
-200 -211 -39 0
-200 211 39 0
-201 -211 85 0
-201 211 -85 0
-202 -211 -85 0
-202 211 85 0
-203 -211 135 0
-203 211 -135 0
-204 -211 -135 0
-204 211 135 0
-205 -211 189 0
-205 211 -189 0
-206 -211 -189 0
-206 211 189 0
-193 212 0
-194 -212 0
-195 -212 0
-196 212 0
-197 212 0
-198 -212 0
-199 -212 40 0
-199 212 -40 0
-200 -212 -40 0
-200 212 40 0
-201 -212 86 0
-201 212 -86 0
-202 -212 -86 0
-202 212 86 0
-203 -212 136 0
-203 212 -136 0
-204 -212 -136 0
-204 212 136 0
-205 -212 190 0
-205 212 -190 0
-206 -212 -190 0
-206 212 190 0
-193 -213 0
-194 213 0
-195 213 0
-196 -213 0
-197 213 0
-198 -213 0
-199 -213 41 0
-199 213 -41 0
-200 -213 -41 0
-200 213 41 0
-201 -213 87 0
-201 213 -87 0
-202 -213 -87 0
-202 213 87 0
-203 -213 137 0
-203 213 -137 0
-204 -213 -137 0
-204 213 137 0
-205 -213 191 0
-205 213 -191 0
-206 -213 -191 0
-206 213 191 0
-193 214 0
-194 -214 0
-195 214 0
-196 -214 0
-197 214 0
-198 -214 0
-199 -214 42 0
-199 214 -42 0
-200 -214 -42 0
-200 214 42 0
-201 -214 88 0
-201 214 -88 0
-202 -214 -88 0
-202 214 88 0
-203 -214 138 0
-203 214 -138 0
-204 -214 -138 0
-204 214 138 0
-205 -214 192 0
-205 214 -192 0
-206 -214 -192 0
-206 214 192 0
215 216 217 218 219 220 221 222 223 224 225 226 227 228 0
-215 -216 0
-215 -217 0
-215 -218 0
-215 -219 0
-215 -220 0
-215 -221 0
-215 -222 0
-215 -223 0
-215 -224 0
-215 -225 0
-215 -226 0
-215 -227 0
-215 -228 0
-216 -217 0
-216 -218 0
-216 -219 0
-216 -220 0
-216 -221 0
-216 -222 0
-216 -223 0
-216 -224 0
-216 -225 0
-216 -226 0
-216 -227 0
-216 -228 0
-217 -218 0
-217 -219 0
-217 -220 0
-217 -221 0
-217 -222 0
-217 -223 0
-217 -224 0
-217 -225 0
-217 -226 0
-217 -227 0
-217 -228 0
-218 -219 0
-218 -220 0
-218 -221 0
-218 -222 0
-218 -223 0
-218 -224 0
-218 -225 0
-218 -226 0
-218 -227 0
-218 -228 0
-219 -220 0
-219 -221 0
-219 -222 0
-219 -223 0
-219 -224 0
-219 -225 0
-219 -226 0
-219 -227 0
-219 -228 0
-220 -221 0
-220 -222 0
-220 -223 0
-220 -224 0
-220 -225 0
-220 -226 0
-220 -227 0
-220 -228 0
-221 -222 0
-221 -223 0
-221 -224 0
-221 -225 0
-221 -226 0
-221 -227 0
-221 -228 0
-222 -223 0
-222 -224 0
-222 -225 0
-222 -226 0
-222 -227 0
-222 -228 0
-223 -224 0
-223 -225 0
-223 -226 0
-223 -227 0
-223 -228 0
-224 -225 0
-224 -226 0
-224 -227 0
-224 -228 0
-225 -226 0
-225 -227 0
-225 -228 0
-226 -227 0
-226 -228 0
-227 -228 0
-215 -229 0
-216 229 0
-217 -229 0
-218 229 0
-219 -229 0
-220 229 0
-221 -229 35 0
-221 229 -35 0
-222 -229 -35 0
-222 229 35 0
-223 -229 81 0
-223 229 -81 0
-224 -229 -81 0
-224 229 81 0
-225 -229 131 0
-225 229 -131 0
-226 -229 -131 0
-226 229 131 0
-227 -229 185 0
-227 229 -185 0
-228 -229 -185 0
-228 229 185 0
-215 230 0
-216 -230 0
-217 -230 0
-218 230 0
-219 -230 0
-220 230 0
-221 -230 36 0
-221 230 -36 0
-222 -230 -36 0
-222 230 36 0
-223 -230 82 0
-223 230 -82 0
-224 -230 -82 0
-224 230 82 0
-225 -230 132 0
-225 230 -132 0
-226 -230 -132 0
-226 230 132 0
-227 -230 186 0
-227 230 -186 0
-228 -230 -186 0
-228 230 186 0
-215 -231 0
-216 231 0
-217 231 0
-218 -231 0
-219 -231 0
-220 231 0
-221 -231 37 0
-221 231 -37 0
-222 -231 -37 0
-222 231 37 0
-223 -231 83 0
-223 231 -83 0
-224 -231 -83 0
-224 231 83 0
-225 -231 133 0
-225 231 -133 0
-226 -231 -133 0
-226 231 133 0
-227 -231 187 0
-227 231 -187 0
-228 -231 -187 0
-228 231 187 0
-215 232 0
-216 -232 0
-217 232 0
-218 -232 0
-219 -232 0
-220 232 0
-221 -232 38 0
-221 232 -38 0
-222 -232 -38 0
-222 232 38 0
-223 -232 84 0
-223 232 -84 0
-224 -232 -84 0
-224 232 84 0
-225 -232 134 0
-225 232 -134 0
-226 -232 -134 0
-226 232 134 0
-227 -232 188 0
-227 232 -188 0
-228 -232 -188 0
-228 232 188 0
-215 -233 0
-216 233 0
-217 -233 0
-218 233 0
-219 233 0
-220 -233 0
-221 -233 39 0
-221 233 -39 0
-222 -233 -39 0
-222 233 39 0
-223 -233 85 0
-223 233 -85 0
-224 -233 -85 0
-224 233 85 0
-225 -233 135 0
-225 233 -135 0
-226 -233 -135 0
-226 233 135 0
-227 -233 189 0
-227 233 -189 0
-228 -233 -189 0
-228 233 189 0
-215 234 0
-216 -234 0
-217 -234 0
-218 234 0
-219 234 0
-220 -234 0
-221 -234 40 0
-221 234 -40 0
-222 -234 -40 0
-222 234 40 0
-223 -234 86 0
-223 234 -86 0
-224 -234 -86 0
-224 234 86 0
-225 -234 136 0
-225 234 -136 0
-226 -234 -136 0
-226 234 136 0
-227 -234 190 0
-227 234 -190 0
-228 -234 -190 0
-228 234 190 0
-215 -235 0
-216 235 0
-217 235 0
-218 -235 0
-219 235 0
-220 -235 0
-221 -235 41 0
-221 235 -41 0
-222 -235 -41 0
-222 235 41 0
-223 -235 87 0
-223 235 -87 0
-224 -235 -87 0
-224 235 87 0
-225 -235 137 0
-225 235 -137 0
-226 -235 -137 0
-226 235 137 0
-227 -235 191 0
-227 235 -191 0
-228 -235 -191 0
-228 235 191 0
-215 236 0
-216 -236 0
-217 236 0
-218 -236 0
-219 236 0
-220 -236 0
-221 -236 42 0
-221 236 -42 0
-222 -236 -42 0
-222 236 42 0
-223 -236 88 0
-223 236 -88 0
-224 -236 -88 0
-224 236 88 0
-225 -236 138 0
-225 236 -138 0
-226 -236 -138 0
-226 236 138 0
-227 -236 192 0
-227 236 -192 0
-228 -236 -192 0
-228 236 192 0
237 238 239 240 241 242 243 244 245 246 247 248 249 250 0
-237 -238 0
-237 -239 0
-237 -240 0
-237 -241 0
-237 -242 0
-237 -243 0
-237 -244 0
-237 -245 0
-237 -246 0
-237 -247 0
-237 -248 0
-237 -249 0
-237 -250 0
-238 -239 0
-238 -240 0
-238 -241 0
-238 -242 0
-238 -243 0
-238 -244 0
-238 -245 0
-238 -246 0
-238 -247 0
-238 -248 0
-238 -249 0
-238 -250 0
-239 -240 0
-239 -241 0
-239 -242 0
-239 -243 0
-239 -244 0
-239 -245 0
-239 -246 0
-239 -247 0
-239 -248 0
-239 -249 0
-239 -250 0
-240 -241 0
-240 -242 0
-240 -243 0
-240 -244 0
-240 -245 0
-240 -246 0
-240 -247 0
-240 -248 0
-240 -249 0
-240 -250 0
-241 -242 0
-241 -243 0
-241 -244 0
-241 -245 0
-241 -246 0
-241 -247 0
-241 -248 0
-241 -249 0
-241 -250 0
-242 -243 0
-242 -244 0
-242 -245 0
-242 -246 0
-242 -247 0
-242 -248 0
-242 -249 0
-242 -250 0
-243 -244 0
-243 -245 0
-243 -246 0
-243 -247 0
-243 -248 0
-243 -249 0
-243 -250 0
-244 -245 0
-244 -246 0
-244 -247 0
-244 -248 0
-244 -249 0
-244 -250 0
-245 -246 0
-245 -247 0
-245 -248 0
-245 -249 0
-245 -250 0
-246 -247 0
-246 -248 0
-246 -249 0
-246 -250 0
-247 -248 0
-247 -249 0
-247 -250 0
-248 -249 0
-248 -250 0
-249 -250 0
-237 -251 0
-238 251 0
-239 -251 0
-240 251 0
-241 -251 0
-242 251 0
-243 -251 35 0
-243 251 -35 0
-244 -251 -35 0
-244 251 35 0
-245 -251 81 0
-245 251 -81 0
-246 -251 -81 0
-246 251 81 0
-247 -251 131 0
-247 251 -131 0
-248 -251 -131 0
-248 251 131 0
-249 -251 185 0
-249 251 -185 0
-250 -251 -185 0
-250 251 185 0
-237 252 0
-238 -252 0
-239 -252 0
-240 252 0
-241 -252 0
-242 252 0
-243 -252 36 0
-243 252 -36 0
-244 -252 -36 0
-244 252 36 0
-245 -252 82 0
-245 252 -82 0
-246 -252 -82 0
-246 252 82 0
-247 -252 132 0
-247 252 -132 0
-248 -252 -132 0
-248 252 132 0
-249 -252 186 0
-249 252 -186 0
-250 -252 -186 0
-250 252 186 0
-237 -253 0
-238 253 0
-239 253 0
-240 -253 0
-241 -253 0
-242 253 0
-243 -253 37 0
-243 253 -37 0
-244 -253 -37 0
-244 253 37 0
-245 -253 83 0
-245 253 -83 0
-246 -253 -83 0
-246 253 83 0
-247 -253 133 0
-247 253 -133 0
-248 -253 -133 0
-248 253 133 0
-249 -253 187 0
-249 253 -187 0
-250 -253 -187 0
-250 253 187 0
-237 254 0
-238 -254 0
-239 254 0
-240 -254 0
-241 -254 0
-242 254 0
-243 -254 38 0
-243 254 -38 0
-244 -254 -38 0
-244 254 38 0
-245 -254 84 0
-245 254 -84 0
-246 -254 -84 0
-246 254 84 0
-247 -254 134 0
-247 254 -134 0
-248 -254 -134 0
-248 254 134 0
-249 -254 188 0
-249 254 -188 0
-250 -254 -188 0
-250 254 188 0
-237 -255 0
-238 255 0
-239 -255 0
-240 255 0
-241 255 0
-242 -255 0
-243 -255 39 0
-243 255 -39 0
-244 -255 -39 0
-244 255 39 0
-245 -255 85 0
-245 255 -85 0
-246 -255 -85 0
-246 255 85 0
-247 -255 135 0
-247 255 -135 0
-248 -255 -135 0
-248 255 135 0
-249 -255 189 0
-249 255 -189 0
-250 -255 -189 0
-250 255 189 0
-237 256 0
-238 -256 0
-239 -256 0
-240 256 0
-241 256 0
-242 -256 0
-243 -256 40 0
-243 256 -40 0
-244 -256 -40 0
-244 256 40 0
-245 -256 86 0
-245 256 -86 0
-246 -256 -86 0
-246 256 86 0
-247 -256 136 0
-247 256 -136 0
-248 -256 -136 0
-248 256 136 0
-249 -256 190 0
-249 256 -190 0
-250 -256 -190 0
-250 256 190 0
-237 -257 0
-238 257 0
-239 257 0
-240 -257 0
-241 257 0
-242 -257 0
-243 -257 41 0
-243 257 -41 0
-244 -257 -41 0
-244 257 41 0
-245 -257 87 0
-245 257 -87 0
-246 -257 -87 0
-246 257 87 0
-247 -257 137 0
-247 257 -137 0
-248 -257 -137 0
-248 257 137 0
-249 -257 191 0
-249 257 -191 0
-250 -257 -191 0
-250 257 191 0
-237 258 0
-238 -258 0
-239 258 0
-240 -258 0
-241 258 0
-242 -258 0
-243 -258 42 0
-243 258 -42 0
-244 -258 -42 0
-244 258 42 0
-245 -258 88 0
-245 258 -88 0
-246 -258 -88 0
-246 258 88 0
-247 -258 138 0
-247 258 -138 0
-248 -258 -138 0
-248 258 138 0
-249 -258 192 0
-249 258 -192 0
-250 -258 -192 0
-250 258 192 0
259 260 261 262 263 264 265 266 267 268 269 270 271 272 0
-259 -260 0
-259 -261 0
-259 -262 0
-259 -263 0
-259 -264 0
-259 -265 0
-259 -266 0
-259 -267 0
-259 -268 0
-259 -269 0
-259 -270 0
-259 -271 0
-259 -272 0
-260 -261 0
-260 -262 0
-260 -263 0
-260 -264 0
-260 -265 0
-260 -266 0
-260 -267 0
-260 -268 0
-260 -269 0
-260 -270 0
-260 -271 0
-260 -272 0
-261 -262 0
-261 -263 0
-261 -264 0
-261 -265 0
-261 -266 0
-261 -267 0
-261 -268 0
-261 -269 0
-261 -270 0
-261 -271 0
-261 -272 0
-262 -263 0
-262 -264 0
-262 -265 0
-262 -266 0
-262 -267 0
-262 -268 0
-262 -269 0
-262 -270 0
-262 -271 0
-262 -272 0
-263 -264 0
-263 -265 0
-263 -266 0
-263 -267 0
-263 -268 0
-263 -269 0
-263 -270 0
-263 -271 0
-263 -272 0
-264 -265 0
-264 -266 0
-264 -267 0
-264 -268 0
-264 -269 0
-264 -270 0
-264 -271 0
-264 -272 0
-265 -266 0
-265 -267 0
-265 -268 0
-265 -269 0
-265 -270 0
-265 -271 0
-265 -272 0
-266 -267 0
-266 -268 0
-266 -269 0
-266 -270 0
-266 -271 0
-266 -272 0
-267 -268 0
-267 -269 0
-267 -270 0
-267 -271 0
-267 -272 0
-268 -269 0
-268 -270 0
-268 -271 0
-268 -272 0
-269 -270 0
-269 -271 0
-269 -272 0
-270 -271 0
-270 -272 0
-271 -272 0
-259 -273 0
-260 273 0
-261 -273 0
-262 273 0
-263 -273 0
-264 273 0
-265 -273 35 0
-265 273 -35 0
-266 -273 -35 0
-266 273 35 0
-267 -273 81 0
-267 273 -81 0
-268 -273 -81 0
-268 273 81 0
-269 -273 131 0
-269 273 -131 0
-270 -273 -131 0
-270 273 131 0
-271 -273 185 0
-271 273 -185 0
-272 -273 -185 0
-272 273 185 0
-259 274 0
-260 -274 0
-261 -274 0
-262 274 0
-263 -274 0
-264 274 0
-265 -274 36 0
-265 274 -36 0
-266 -274 -36 0
-266 274 36 0
-267 -274 82 0
-267 274 -82 0
-268 -274 -82 0
-268 274 82 0
-269 -274 132 0
-269 274 -132 0
-270 -274 -132 0
-270 274 132 0
-271 -274 186 0
-271 274 -186 0
-272 -274 -186 0
-272 274 186 0
-259 -275 0
-260 275 0
-261 275 0
-262 -275 0
-263 -275 0
-264 275 0
-265 -275 37 0
-265 275 -37 0
-266 -275 -37 0
-266 275 37 0
-267 -275 83 0
-267 275 -83 0
-268 -275 -83 0
-268 275 83 0
-269 -275 133 0
-269 275 -133 0
-270 -275 -133 0
-270 275 133 0
-271 -275 187 0
-271 275 -187 0
-272 -275 -187 0
-272 275 187 0
-259 276 0
-260 -276 0
-261 276 0
-262 -276 0
-263 -276 0
-264 276 0
-265 -276 38 0
-265 276 -38 0
-266 -276 -38 0
-266 276 38 0
-267 -276 84 0
-267 276 -84 0
-268 -276 -84 0
-268 276 84 0
-269 -276 134 0
-269 276 -134 0
-270 -276 -134 0
-270 276 134 0
-271 -276 188 0
-271 276 -188 0
-272 -276 -188 0
-272 276 188 0
-259 -277 0
-260 277 0
-261 -277 0
-262 277 0
-263 277 0
-264 -277 0
-265 -277 39 0
-265 277 -39 0
-266 -277 -39 0
-266 277 39 0
-267 -277 85 0
-267 277 -85 0
-268 -277 -85 0
-268 277 85 0
-269 -277 135 0
-269 277 -135 0
-270 -277 -135 0
-270 277 135 0
-271 -277 189 0
-271 277 -189 0
-272 -277 -189 0
-272 277 189 0
-259 278 0
-260 -278 0
-261 -278 0
-262 278 0
-263 278 0
-264 -278 0
-265 -278 40 0
-265 278 -40 0
-266 -278 -40 0
-266 278 40 0
-267 -278 86 0
-267 278 -86 0
-268 -278 -86 0
-268 278 86 0
-269 -278 136 0
-269 278 -136 0
-270 -278 -136 0
-270 278 136 0
-271 -278 190 0
-271 278 -190 0
-272 -278 -190 0
-272 278 190 0
-259 -279 0
-260 279 0
-261 279 0
-262 -279 0
-263 279 0
-264 -279 0
-265 -279 41 0
-265 279 -41 0
-266 -279 -41 0
-266 279 41 0
-267 -279 87 0
-267 279 -87 0
-268 -279 -87 0
-268 279 87 0
-269 -279 137 0
-269 279 -137 0
-270 -279 -137 0
-270 279 137 0
-271 -279 191 0
-271 279 -191 0
-272 -279 -191 0
-272 279 191 0
-259 280 0
-260 -280 0
-261 280 0
-262 -280 0
-263 280 0
-264 -280 0
-265 -280 42 0
-265 280 -42 0
-266 -280 -42 0
-266 280 42 0
-267 -280 88 0
-267 280 -88 0
-268 -280 -88 0
-268 280 88 0
-269 -280 138 0
-269 280 -138 0
-270 -280 -138 0
-270 280 138 0
-271 -280 192 0
-271 280 -192 0
-272 -280 -192 0
-272 280 192 0
281 282 283 284 285 286 287 288 289 290 291 292 293 294 0
-281 -282 0
-281 -283 0
-281 -284 0
-281 -285 0
-281 -286 0
-281 -287 0
-281 -288 0
-281 -289 0
-281 -290 0
-281 -291 0
-281 -292 0
-281 -293 0
-281 -294 0
-282 -283 0
-282 -284 0
-282 -285 0
-282 -286 0
-282 -287 0
-282 -288 0
-282 -289 0
-282 -290 0
-282 -291 0
-282 -292 0
-282 -293 0
-282 -294 0
-283 -284 0
-283 -285 0
-283 -286 0
-283 -287 0
-283 -288 0
-283 -289 0
-283 -290 0
-283 -291 0
-283 -292 0
-283 -293 0
-283 -294 0
-284 -285 0
-284 -286 0
-284 -287 0
-284 -288 0
-284 -289 0
-284 -290 0
-284 -291 0
-284 -292 0
-284 -293 0
-284 -294 0
-285 -286 0
-285 -287 0
-285 -288 0
-285 -289 0
-285 -290 0
-285 -291 0
-285 -292 0
-285 -293 0
-285 -294 0
-286 -287 0
-286 -288 0
-286 -289 0
-286 -290 0
-286 -291 0
-286 -292 0
-286 -293 0
-286 -294 0
-287 -288 0
-287 -289 0
-287 -290 0
-287 -291 0
-287 -292 0
-287 -293 0
-287 -294 0
-288 -289 0
-288 -290 0
-288 -291 0
-288 -292 0
-288 -293 0
-288 -294 0
-289 -290 0
-289 -291 0
-289 -292 0
-289 -293 0
-289 -294 0
-290 -291 0
-290 -292 0
-290 -293 0
-290 -294 0
-291 -292 0
-291 -293 0
-291 -294 0
-292 -293 0
-292 -294 0
-293 -294 0
-281 -295 0
-282 295 0
-283 -295 0
-284 295 0
-285 -295 0
-286 295 0
-287 -295 35 0
-287 295 -35 0
-288 -295 -35 0
-288 295 35 0
-289 -295 81 0
-289 295 -81 0
-290 -295 -81 0
-290 295 81 0
-291 -295 131 0
-291 295 -131 0
-292 -295 -131 0
-292 295 131 0
-293 -295 185 0
-293 295 -185 0
-294 -295 -185 0
-294 295 185 0
-281 296 0
-282 -296 0
-283 -296 0
-284 296 0
-285 -296 0
-286 296 0
-287 -296 36 0
-287 296 -36 0
-288 -296 -36 0
-288 296 36 0
-289 -296 82 0
-289 296 -82 0
-290 -296 -82 0
-290 296 82 0
-291 -296 132 0
-291 296 -132 0
-292 -296 -132 0
-292 296 132 0
-293 -296 186 0
-293 296 -186 0
-294 -296 -186 0
-294 296 186 0
-281 -297 0
-282 297 0
-283 297 0
-284 -297 0
-285 -297 0
-286 297 0
-287 -297 37 0
-287 297 -37 0
-288 -297 -37 0
-288 297 37 0
-289 -297 83 0
-289 297 -83 0
-290 -297 -83 0
-290 297 83 0
-291 -297 133 0
-291 297 -133 0
-292 -297 -133 0
-292 297 133 0
-293 -297 187 0
-293 297 -187 0
-294 -297 -187 0
-294 297 187 0
-281 298 0
-282 -298 0
-283 298 0
-284 -298 0
-285 -298 0
-286 298 0
-287 -298 38 0
-287 298 -38 0
-288 -298 -38 0
-288 298 38 0
-289 -298 84 0
-289 298 -84 0
-290 -298 -84 0
-290 298 84 0
-291 -298 134 0
-291 298 -134 0
-292 -298 -134 0
-292 298 134 0
-293 -298 188 0
-293 298 -188 0
-294 -298 -188 0
-294 298 188 0
-281 -299 0
-282 299 0
-283 -299 0
-284 299 0
-285 299 0
-286 -299 0
-287 -299 39 0
-287 299 -39 0
-288 -299 -39 0
-288 299 39 0
-289 -299 85 0
-289 299 -85 0
-290 -299 -85 0
-290 299 85 0
-291 -299 135 0
-291 299 -135 0
-292 -299 -135 0
-292 299 135 0
-293 -299 189 0
-293 299 -189 0
-294 -299 -189 0
-294 299 189 0
-281 300 0
-282 -300 0
-283 -300 0
-284 300 0
-285 300 0
-286 -300 0
-287 -300 40 0
-287 300 -40 0
-288 -300 -40 0
-288 300 40 0
-289 -300 86 0
-289 300 -86 0
-290 -300 -86 0
-290 300 86 0
-291 -300 136 0
-291 300 -136 0
-292 -300 -136 0
-292 300 136 0
-293 -300 190 0
-293 300 -190 0
-294 -300 -190 0
-294 300 190 0
-281 -301 0
-282 301 0
-283 301 0
-284 -301 0
-285 301 0
-286 -301 0
-287 -301 41 0
-287 301 -41 0
-288 -301 -41 0
-288 301 41 0
-289 -301 87 0
-289 301 -87 0
-290 -301 -87 0
-290 301 87 0
-291 -301 137 0
-291 301 -137 0
-292 -301 -137 0
-292 301 137 0
-293 -301 191 0
-293 301 -191 0
-294 -301 -191 0
-294 301 191 0
-281 302 0
-282 -302 0
-283 302 0
-284 -302 0
-285 302 0
-286 -302 0
-287 -302 42 0
-287 302 -42 0
-288 -302 -42 0
-288 302 42 0
-289 -302 88 0
-289 302 -88 0
-290 -302 -88 0
-290 302 88 0
-291 -302 138 0
-291 302 -138 0
-292 -302 -138 0
-292 302 138 0
-293 -302 192 0
-293 302 -192 0
-294 -302 -192 0
-294 302 192 0
207 229 251 273 295 0
-207 229 251 273 295 0
207 -229 251 273 295 0
-207 -229 251 273 295 0
207 229 -251 273 295 0
-207 229 -251 273 295 0
207 -229 -251 273 295 0
-207 -229 -251 273 295 0
207 229 251 -273 295 0
-207 229 251 -273 295 0
207 -229 251 -273 295 0
-207 -229 251 -273 295 0
207 229 -251 -273 295 0
-207 229 -251 -273 295 0
207 -229 -251 -273 295 0
-207 -229 -251 -273 295 0
-207 229 251 273 -295 0
207 -229 251 273 -295 0
-207 -229 251 273 -295 0
207 229 -251 273 -295 0
-207 229 -251 273 -295 0
207 -229 -251 273 -295 0
-207 -229 -251 273 -295 0
207 229 251 -273 -295 0
-207 229 251 -273 -295 0
207 -229 251 -273 -295 0
-207 -229 251 -273 -295 0
207 229 -251 -273 -295 0
-207 229 -251 -273 -295 0
207 -229 -251 -273 -295 0
-207 -229 -251 -273 -295 0
208 230 252 274 296 0
-208 230 252 274 296 0
208 -230 252 274 296 0
-208 -230 252 274 296 0
208 230 -252 274 296 0
-208 230 -252 274 296 0
208 -230 -252 274 296 0
-208 -230 -252 274 296 0
208 230 252 -274 296 0
-208 230 252 -274 296 0
208 -230 252 -274 296 0
-208 -230 252 -274 296 0
208 230 -252 -274 296 0
-208 230 -252 -274 296 0
208 -230 -252 -274 296 0
-208 -230 -252 -274 296 0
208 230 252 274 -296 0
208 -230 252 274 -296 0
-208 -230 252 274 -296 0
-208 230 -252 274 -296 0
208 -230 -252 274 -296 0
-208 -230 -252 274 -296 0
208 230 252 -274 -296 0
-208 230 252 -274 -296 0
208 -230 252 -274 -296 0
-208 -230 252 -274 -296 0
208 230 -252 -274 -296 0
-208 230 -252 -274 -296 0
208 -230 -252 -274 -296 0
-208 -230 -252 -274 -296 0
209 231 253 275 297 0
-209 231 253 275 297 0
209 -231 253 275 297 0
-209 -231 253 275 297 0
209 231 -253 275 297 0
-209 231 -253 275 297 0
209 -231 -253 275 297 0
-209 -231 -253 275 297 0
209 231 253 -275 297 0
-209 231 253 -275 297 0
209 -231 253 -275 297 0
-209 -231 253 -275 297 0
209 231 -253 -275 297 0
-209 231 -253 -275 297 0
209 -231 -253 -275 297 0
-209 -231 -253 -275 297 0
209 231 253 275 -297 0
-209 231 253 275 -297 0
-209 -231 253 275 -297 0
209 231 -253 275 -297 0
209 -231 -253 275 -297 0
-209 -231 -253 275 -297 0
-209 231 253 -275 -297 0
209 -231 253 -275 -297 0
-209 -231 253 -275 -297 0
209 231 -253 -275 -297 0
-209 231 -253 -275 -297 0
209 -231 -253 -275 -297 0
-209 -231 -253 -275 -297 0
210 232 254 276 298 0
-210 232 254 276 298 0
210 -232 254 276 298 0
-210 -232 254 276 298 0
210 232 -254 276 298 0
-210 232 -254 276 298 0
210 -232 -254 276 298 0
-210 -232 -254 276 298 0
210 232 254 -276 298 0
-210 232 254 -276 298 0
210 -232 254 -276 298 0
-210 -232 254 -276 298 0
210 232 -254 -276 298 0
-210 232 -254 -276 298 0
210 -232 -254 -276 298 0
-210 -232 -254 -276 298 0
210 232 254 276 -298 0
-210 232 254 276 -298 0
210 -232 254 276 -298 0
210 232 -254 276 -298 0
-210 232 -254 276 -298 0
-210 -232 -254 276 -298 0
210 232 254 -276 -298 0
210 -232 254 -276 -298 0
-210 -232 254 -276 -298 0
-210 232 -254 -276 -298 0
210 -232 -254 -276 -298 0
-210 -232 -254 -276 -298 0
211 233 255 277 299 0
-211 233 255 277 299 0
211 -233 255 277 299 0
-211 -233 255 277 299 0
211 233 -255 277 299 0
-211 233 -255 277 299 0
211 -233 -255 277 299 0
-211 -233 -255 277 299 0
211 233 255 -277 299 0
-211 233 255 -277 299 0
211 -233 255 -277 299 0
-211 -233 255 -277 299 0
211 233 -255 -277 299 0
-211 233 -255 -277 299 0
211 -233 -255 -277 299 0
-211 -233 -255 -277 299 0
211 233 255 277 -299 0
-211 233 255 277 -299 0
211 -233 255 277 -299 0
-211 -233 255 277 -299 0
211 233 -255 277 -299 0
-211 233 -255 277 -299 0
211 -233 -255 277 -299 0
211 233 255 -277 -299 0
-211 233 255 -277 -299 0
-211 -233 255 -277 -299 0
211 233 -255 -277 -299 0
211 -233 -255 -277 -299 0
-211 -233 -255 -277 -299 0
212 234 256 278 300 0
-212 234 256 278 300 0
212 -234 256 278 300 0
-212 -234 256 278 300 0
212 234 -256 278 300 0
-212 234 -256 278 300 0
212 -234 -256 278 300 0
-212 -234 -256 278 300 0
212 234 256 -278 300 0
-212 234 256 -278 300 0
212 -234 256 -278 300 0
-212 -234 256 -278 300 0
212 234 -256 -278 300 0
-212 234 -256 -278 300 0
212 -234 -256 -278 300 0
-212 -234 -256 -278 300 0
212 234 256 278 -300 0
-212 234 256 278 -300 0
212 -234 256 278 -300 0
-212 -234 256 278 -300 0
212 234 -256 278 -300 0
-212 234 -256 278 -300 0
212 -234 -256 278 -300 0
-212 -234 -256 278 -300 0
212 234 256 -278 -300 0
-212 234 256 -278 -300 0
212 -234 256 -278 -300 0
212 234 -256 -278 -300 0
-212 234 -256 -278 -300 0
-212 -234 -256 -278 -300 0
213 235 257 279 301 0
-213 235 257 279 301 0
213 -235 257 279 301 0
-213 -235 257 279 301 0
213 235 -257 279 301 0
-213 235 -257 279 301 0
213 -235 -257 279 301 0
-213 -235 -257 279 301 0
213 235 257 -279 301 0
-213 235 257 -279 301 0
213 -235 257 -279 301 0
-213 -235 257 -279 301 0
213 235 -257 -279 301 0
-213 235 -257 -279 301 0
213 -235 -257 -279 301 0
-213 -235 -257 -279 301 0
213 235 257 279 -301 0
-213 235 257 279 -301 0
213 -235 257 279 -301 0
-213 -235 257 279 -301 0
213 235 -257 279 -301 0
-213 235 -257 279 -301 0
213 -235 -257 279 -301 0
-213 -235 -257 279 -301 0
213 235 257 -279 -301 0
-213 235 257 -279 -301 0
213 -235 257 -279 -301 0
-213 -235 257 -279 -301 0
213 235 -257 -279 -301 0
-213 235 -257 -279 -301 0
213 -235 -257 -279 -301 0
-214 236 258 280 302 0
214 -236 258 280 302 0
-214 -236 258 280 302 0
214 236 -258 280 302 0
-214 236 -258 280 302 0
214 -236 -258 280 302 0
-214 -236 -258 280 302 0
214 236 258 -280 302 0
-214 236 258 -280 302 0
214 -236 258 -280 302 0
-214 -236 258 -280 302 0
214 236 -258 -280 302 0
-214 236 -258 -280 302 0
214 -236 -258 -280 302 0
-214 -236 -258 -280 302 0
214 236 258 280 -302 0
-214 236 258 280 -302 0
214 -236 258 280 -302 0
-214 -236 258 280 -302 0
214 236 -258 280 -302 0
-214 236 -258 280 -302 0
214 -236 -258 280 -302 0
-214 -236 -258 280 -302 0
214 236 258 -280 -302 0
-214 236 258 -280 -302 0
214 -236 258 -280 -302 0
-214 -236 258 -280 -302 0
214 236 -258 -280 -302 0
-214 236 -258 -280 -302 0
214 -236 -258 -280 -302 0
-214 -236 -258 -280 -302 0
