p cnf 764 13900
1 2 3 4 5 6 0
-1 -2 0
-1 -3 0
-1 -4 0
-1 -5 0
-1 -6 0
-2 -3 0
-2 -4 0
-2 -5 0
-2 -6 0
-3 -4 0
-3 -5 0
-3 -6 0
-4 -5 0
-4 -6 0
-5 -6 0
7 8 9 10 11 12 13 14 0
-7 -8 0
-7 -9 0
-7 -10 0
-7 -11 0
-7 -12 0
-7 -13 0
-7 -14 0
-8 -9 0
-8 -10 0
-8 -11 0
-8 -12 0
-8 -13 0
-8 -14 0
-9 -10 0
-9 -11 0
-9 -12 0
-9 -13 0
-9 -14 0
-10 -11 0
-10 -12 0
-10 -13 0
-10 -14 0
-11 -12 0
-11 -13 0
-11 -14 0
-12 -13 0
-12 -14 0
-13 -14 0
15 16 17 18 19 20 21 22 0
-15 -16 0
-15 -17 0
-15 -18 0
-15 -19 0
-15 -20 0
-15 -21 0
-15 -22 0
-16 -17 0
-16 -18 0
-16 -19 0
-16 -20 0
-16 -21 0
-16 -22 0
-17 -18 0
-17 -19 0
-17 -20 0
-17 -21 0
-17 -22 0
-18 -19 0
-18 -20 0
-18 -21 0
-18 -22 0
-19 -20 0
-19 -21 0
-19 -22 0
-20 -21 0
-20 -22 0
-21 -22 0
-8 -15 0
-9 -15 0
-9 -16 0
-10 -15 0
-10 -16 0
-10 -17 0
-11 -15 0
-11 -16 0
-11 -17 0
-11 -18 0
-12 -15 0
-12 -16 0
-12 -17 0
-12 -18 0
-12 -19 0
-13 -15 0
-13 -16 0
-13 -17 0
-13 -18 0
-13 -19 0
-13 -20 0
-14 -15 0
-14 -16 0
-14 -17 0
-14 -18 0
-14 -19 0
-14 -20 0
-14 -21 0
-7 -23 0
-8 23 0
-9 -23 0
-10 23 0
-11 -23 0
-12 23 0
-13 -23 0
-14 23 0
-15 -39 0
-16 39 0
-17 -39 0
-18 39 0
-19 -39 0
-20 39 0
-21 -39 0
-22 39 0
-1 23 39 -55 0
-1 23 -39 -55 0
-1 -23 39 -55 0
-1 -23 -39 55 0
-2 23 39 -55 0
-2 23 -39 55 0
-2 -23 39 55 0
-2 -23 -39 55 0
-3 23 39 -55 0
-3 23 -39 55 0
-3 -23 39 55 0
-3 -23 -39 -55 0
-4 23 39 55 0
-4 23 -39 55 0
-4 -23 39 55 0
-4 -23 -39 -55 0
-5 23 39 55 0
-5 23 -39 -55 0
-5 -23 39 -55 0
-5 -23 -39 -55 0
-6 23 39 55 0
-6 23 -39 -55 0
-6 -23 39 -55 0
-6 -23 -39 55 0
-7 24 0
-8 -24 0
-9 -24 0
-10 24 0
-11 -24 0
-12 24 0
-13 -24 0
-14 24 0
-15 40 0
-16 -40 0
-17 -40 0
-18 40 0
-19 -40 0
-20 40 0
-21 -40 0
-22 40 0
-1 24 40 -56 0
-1 24 -40 -56 0
-1 -24 40 -56 0
-1 -24 -40 56 0
-2 24 40 -56 0
-2 24 -40 56 0
-2 -24 40 56 0
-2 -24 -40 56 0
-3 24 40 -56 0
-3 24 -40 56 0
-3 -24 40 56 0
-3 -24 -40 -56 0
-4 24 40 56 0
-4 24 -40 56 0
-4 -24 40 56 0
-4 -24 -40 -56 0
-5 24 40 56 0
-5 24 -40 -56 0
-5 -24 40 -56 0
-5 -24 -40 -56 0
-6 24 40 56 0
-6 24 -40 -56 0
-6 -24 40 -56 0
-6 -24 -40 56 0
-7 -25 0
-8 25 0
-9 25 0
-10 -25 0
-11 -25 0
-12 25 0
-13 -25 0
-14 25 0
-15 -41 0
-16 41 0
-17 41 0
-18 -41 0
-19 -41 0
-20 41 0
-21 -41 0
-22 41 0
-1 25 41 -57 0
-1 25 -41 -57 0
-1 -25 41 -57 0
-1 -25 -41 57 0
-2 25 41 -57 0
-2 25 -41 57 0
-2 -25 41 57 0
-2 -25 -41 57 0
-3 25 41 -57 0
-3 25 -41 57 0
-3 -25 41 57 0
-3 -25 -41 -57 0
-4 25 41 57 0
-4 25 -41 57 0
-4 -25 41 57 0
-4 -25 -41 -57 0
-5 25 41 57 0
-5 25 -41 -57 0
-5 -25 41 -57 0
-5 -25 -41 -57 0
-6 25 41 57 0
-6 25 -41 -57 0
-6 -25 41 -57 0
-6 -25 -41 57 0
-7 26 0
-8 -26 0
-9 26 0
-10 -26 0
-11 -26 0
-12 26 0
-13 -26 0
-14 26 0
-15 42 0
-16 -42 0
-17 42 0
-18 -42 0
-19 -42 0
-20 42 0
-21 -42 0
-22 42 0
-1 26 42 -58 0
-1 26 -42 -58 0
-1 -26 42 -58 0
-1 -26 -42 58 0
-2 26 42 -58 0
-2 26 -42 58 0
-2 -26 42 58 0
-2 -26 -42 58 0
-3 26 42 -58 0
-3 26 -42 58 0
-3 -26 42 58 0
-3 -26 -42 -58 0
-4 26 42 58 0
-4 26 -42 58 0
-4 -26 42 58 0
-4 -26 -42 -58 0
-5 26 42 58 0
-5 26 -42 -58 0
-5 -26 42 -58 0
-5 -26 -42 -58 0
-6 26 42 58 0
-6 26 -42 -58 0
-6 -26 42 -58 0
-6 -26 -42 58 0
-7 -27 0
-8 27 0
-9 -27 0
-10 27 0
-11 27 0
-12 -27 0
-13 -27 0
-14 27 0
-15 -43 0
-16 43 0
-17 -43 0
-18 43 0
-19 43 0
-20 -43 0
-21 -43 0
-22 43 0
-1 27 43 -59 0
-1 27 -43 -59 0
-1 -27 43 -59 0
-1 -27 -43 59 0
-2 27 43 -59 0
-2 27 -43 59 0
-2 -27 43 59 0
-2 -27 -43 59 0
-3 27 43 -59 0
-3 27 -43 59 0
-3 -27 43 59 0
-3 -27 -43 -59 0
-4 27 43 59 0
-4 27 -43 59 0
-4 -27 43 59 0
-4 -27 -43 -59 0
-5 27 43 59 0
-5 27 -43 -59 0
-5 -27 43 -59 0
-5 -27 -43 -59 0
-6 27 43 59 0
-6 27 -43 -59 0
-6 -27 43 -59 0
-6 -27 -43 59 0
-7 28 0
-8 -28 0
-9 -28 0
-10 28 0
-11 28 0
-12 -28 0
-13 -28 0
-14 28 0
-15 44 0
-16 -44 0
-17 -44 0
-18 44 0
-19 44 0
-20 -44 0
-21 -44 0
-22 44 0
-1 28 44 -60 0
-1 28 -44 -60 0
-1 -28 44 -60 0
-1 -28 -44 60 0
-2 28 44 -60 0
-2 28 -44 60 0
-2 -28 44 60 0
-2 -28 -44 60 0
-3 28 44 -60 0
-3 28 -44 60 0
-3 -28 44 60 0
-3 -28 -44 -60 0
-4 28 44 60 0
-4 28 -44 60 0
-4 -28 44 60 0
-4 -28 -44 -60 0
-5 28 44 60 0
-5 28 -44 -60 0
-5 -28 44 -60 0
-5 -28 -44 -60 0
-6 28 44 60 0
-6 28 -44 -60 0
-6 -28 44 -60 0
-6 -28 -44 60 0
-7 -29 0
-8 29 0
-9 29 0
-10 -29 0
-11 29 0
-12 -29 0
-13 -29 0
-14 29 0
-15 -45 0
-16 45 0
-17 45 0
-18 -45 0
-19 45 0
-20 -45 0
-21 -45 0
-22 45 0
-1 29 45 -61 0
-1 29 -45 -61 0
-1 -29 45 -61 0
-1 -29 -45 61 0
-2 29 45 -61 0
-2 29 -45 61 0
-2 -29 45 61 0
-2 -29 -45 61 0
-3 29 45 -61 0
-3 29 -45 61 0
-3 -29 45 61 0
-3 -29 -45 -61 0
-4 29 45 61 0
-4 29 -45 61 0
-4 -29 45 61 0
-4 -29 -45 -61 0
-5 29 45 61 0
-5 29 -45 -61 0
-5 -29 45 -61 0
-5 -29 -45 -61 0
-6 29 45 61 0
-6 29 -45 -61 0
-6 -29 45 -61 0
-6 -29 -45 61 0
-7 30 0
-8 -30 0
-9 30 0
-10 -30 0
-11 30 0
-12 -30 0
-13 -30 0
-14 30 0
-15 46 0
-16 -46 0
-17 46 0
-18 -46 0
-19 46 0
-20 -46 0
-21 -46 0
-22 46 0
-1 30 46 -62 0
-1 30 -46 -62 0
-1 -30 46 -62 0
-1 -30 -46 62 0
-2 30 46 -62 0
-2 30 -46 62 0
-2 -30 46 62 0
-2 -30 -46 62 0
-3 30 46 -62 0
-3 30 -46 62 0
-3 -30 46 62 0
-3 -30 -46 -62 0
-4 30 46 62 0
-4 30 -46 62 0
-4 -30 46 62 0
-4 -30 -46 -62 0
-5 30 46 62 0
-5 30 -46 -62 0
-5 -30 46 -62 0
-5 -30 -46 -62 0
-6 30 46 62 0
-6 30 -46 -62 0
-6 -30 46 -62 0
-6 -30 -46 62 0
-7 -31 0
-8 31 0
-9 -31 0
-10 31 0
-11 -31 0
-12 31 0
-13 31 0
-14 -31 0
-15 -47 0
-16 47 0
-17 -47 0
-18 47 0
-19 -47 0
-20 47 0
-21 47 0
-22 -47 0
-1 31 47 -63 0
-1 31 -47 -63 0
-1 -31 47 -63 0
-1 -31 -47 63 0
-2 31 47 -63 0
-2 31 -47 63 0
-2 -31 47 63 0
-2 -31 -47 63 0
-3 31 47 -63 0
-3 31 -47 63 0
-3 -31 47 63 0
-3 -31 -47 -63 0
-4 31 47 63 0
-4 31 -47 63 0
-4 -31 47 63 0
-4 -31 -47 -63 0
-5 31 47 63 0
-5 31 -47 -63 0
-5 -31 47 -63 0
-5 -31 -47 -63 0
-6 31 47 63 0
-6 31 -47 -63 0
-6 -31 47 -63 0
-6 -31 -47 63 0
-7 32 0
-8 -32 0
-9 -32 0
-10 32 0
-11 -32 0
-12 32 0
-13 32 0
-14 -32 0
-15 48 0
-16 -48 0
-17 -48 0
-18 48 0
-19 -48 0
-20 48 0
-21 48 0
-22 -48 0
-1 32 48 -64 0
-1 32 -48 -64 0
-1 -32 48 -64 0
-1 -32 -48 64 0
-2 32 48 -64 0
-2 32 -48 64 0
-2 -32 48 64 0
-2 -32 -48 64 0
-3 32 48 -64 0
-3 32 -48 64 0
-3 -32 48 64 0
-3 -32 -48 -64 0
-4 32 48 64 0
-4 32 -48 64 0
-4 -32 48 64 0
-4 -32 -48 -64 0
-5 32 48 64 0
-5 32 -48 -64 0
-5 -32 48 -64 0
-5 -32 -48 -64 0
-6 32 48 64 0
-6 32 -48 -64 0
-6 -32 48 -64 0
-6 -32 -48 64 0
-7 -33 0
-8 33 0
-9 33 0
-10 -33 0
-11 -33 0
-12 33 0
-13 33 0
-14 -33 0
-15 -49 0
-16 49 0
-17 49 0
-18 -49 0
-19 -49 0
-20 49 0
-21 49 0
-22 -49 0
-1 33 49 -65 0
-1 33 -49 -65 0
-1 -33 49 -65 0
-1 -33 -49 65 0
-2 33 49 -65 0
-2 33 -49 65 0
-2 -33 49 65 0
-2 -33 -49 65 0
-3 33 49 -65 0
-3 33 -49 65 0
-3 -33 49 65 0
-3 -33 -49 -65 0
-4 33 49 65 0
-4 33 -49 65 0
-4 -33 49 65 0
-4 -33 -49 -65 0
-5 33 49 65 0
-5 33 -49 -65 0
-5 -33 49 -65 0
-5 -33 -49 -65 0
-6 33 49 65 0
-6 33 -49 -65 0
-6 -33 49 -65 0
-6 -33 -49 65 0
-7 34 0
-8 -34 0
-9 34 0
-10 -34 0
-11 -34 0
-12 34 0
-13 34 0
-14 -34 0
-15 50 0
-16 -50 0
-17 50 0
-18 -50 0
-19 -50 0
-20 50 0
-21 50 0
-22 -50 0
-1 34 50 -66 0
-1 34 -50 -66 0
-1 -34 50 -66 0
-1 -34 -50 66 0
-2 34 50 -66 0
-2 34 -50 66 0
-2 -34 50 66 0
-2 -34 -50 66 0
-3 34 50 -66 0
-3 34 -50 66 0
-3 -34 50 66 0
-3 -34 -50 -66 0
-4 34 50 66 0
-4 34 -50 66 0
-4 -34 50 66 0
-4 -34 -50 -66 0
-5 34 50 66 0
-5 34 -50 -66 0
-5 -34 50 -66 0
-5 -34 -50 -66 0
-6 34 50 66 0
-6 34 -50 -66 0
-6 -34 50 -66 0
-6 -34 -50 66 0
-7 -35 0
-8 35 0
-9 -35 0
-10 35 0
-11 35 0
-12 -35 0
-13 35 0
-14 -35 0
-15 -51 0
-16 51 0
-17 -51 0
-18 51 0
-19 51 0
-20 -51 0
-21 51 0
-22 -51 0
-1 35 51 -67 0
-1 35 -51 -67 0
-1 -35 51 -67 0
-1 -35 -51 67 0
-2 35 51 -67 0
-2 35 -51 67 0
-2 -35 51 67 0
-2 -35 -51 67 0
-3 35 51 -67 0
-3 35 -51 67 0
-3 -35 51 67 0
-3 -35 -51 -67 0
-4 35 51 67 0
-4 35 -51 67 0
-4 -35 51 67 0
-4 -35 -51 -67 0
-5 35 51 67 0
-5 35 -51 -67 0
-5 -35 51 -67 0
-5 -35 -51 -67 0
-6 35 51 67 0
-6 35 -51 -67 0
-6 -35 51 -67 0
-6 -35 -51 67 0
-7 36 0
-8 -36 0
-9 -36 0
-10 36 0
-11 36 0
-12 -36 0
-13 36 0
-14 -36 0
-15 52 0
-16 -52 0
-17 -52 0
-18 52 0
-19 52 0
-20 -52 0
-21 52 0
-22 -52 0
-1 36 52 -68 0
-1 36 -52 -68 0
-1 -36 52 -68 0
-1 -36 -52 68 0
-2 36 52 -68 0
-2 36 -52 68 0
-2 -36 52 68 0
-2 -36 -52 68 0
-3 36 52 -68 0
-3 36 -52 68 0
-3 -36 52 68 0
-3 -36 -52 -68 0
-4 36 52 68 0
-4 36 -52 68 0
-4 -36 52 68 0
-4 -36 -52 -68 0
-5 36 52 68 0
-5 36 -52 -68 0
-5 -36 52 -68 0
-5 -36 -52 -68 0
-6 36 52 68 0
-6 36 -52 -68 0
-6 -36 52 -68 0
-6 -36 -52 68 0
-7 -37 0
-8 37 0
-9 37 0
-10 -37 0
-11 37 0
-12 -37 0
-13 37 0
-14 -37 0
-15 -53 0
-16 53 0
-17 53 0
-18 -53 0
-19 53 0
-20 -53 0
-21 53 0
-22 -53 0
-1 37 53 -69 0
-1 37 -53 -69 0
-1 -37 53 -69 0
-1 -37 -53 69 0
-2 37 53 -69 0
-2 37 -53 69 0
-2 -37 53 69 0
-2 -37 -53 69 0
-3 37 53 -69 0
-3 37 -53 69 0
-3 -37 53 69 0
-3 -37 -53 -69 0
-4 37 53 69 0
-4 37 -53 69 0
-4 -37 53 69 0
-4 -37 -53 -69 0
-5 37 53 69 0
-5 37 -53 -69 0
-5 -37 53 -69 0
-5 -37 -53 -69 0
-6 37 53 69 0
-6 37 -53 -69 0
-6 -37 53 -69 0
-6 -37 -53 69 0
-7 38 0
-8 -38 0
-9 38 0
-10 -38 0
-11 38 0
-12 -38 0
-13 38 0
-14 -38 0
-15 54 0
-16 -54 0
-17 54 0
-18 -54 0
-19 54 0
-20 -54 0
-21 54 0
-22 -54 0
-1 38 54 -70 0
-1 38 -54 -70 0
-1 -38 54 -70 0
-1 -38 -54 70 0
-2 38 54 -70 0
-2 38 -54 70 0
-2 -38 54 70 0
-2 -38 -54 70 0
-3 38 54 -70 0
-3 38 -54 70 0
-3 -38 54 70 0
-3 -38 -54 -70 0
-4 38 54 70 0
-4 38 -54 70 0
-4 -38 54 70 0
-4 -38 -54 -70 0
-5 38 54 70 0
-5 38 -54 -70 0
-5 -38 54 -70 0
-5 -38 -54 -70 0
-6 38 54 70 0
-6 38 -54 -70 0
-6 -38 54 -70 0
-6 -38 -54 70 0
71 72 73 74 75 76 0
-71 -72 0
-71 -73 0
-71 -74 0
-71 -75 0
-71 -76 0
-72 -73 0
-72 -74 0
-72 -75 0
-72 -76 0
-73 -74 0
-73 -75 0
-73 -76 0
-74 -75 0
-74 -76 0
-75 -76 0
77 78 79 80 81 82 83 84 85 86 0
-77 -78 0
-77 -79 0
-77 -80 0
-77 -81 0
-77 -82 0
-77 -83 0
-77 -84 0
-77 -85 0
-77 -86 0
-78 -79 0
-78 -80 0
-78 -81 0
-78 -82 0
-78 -83 0
-78 -84 0
-78 -85 0
-78 -86 0
-79 -80 0
-79 -81 0
-79 -82 0
-79 -83 0
-79 -84 0
-79 -85 0
-79 -86 0
-80 -81 0
-80 -82 0
-80 -83 0
-80 -84 0
-80 -85 0
-80 -86 0
-81 -82 0
-81 -83 0
-81 -84 0
-81 -85 0
-81 -86 0
-82 -83 0
-82 -84 0
-82 -85 0
-82 -86 0
-83 -84 0
-83 -85 0
-83 -86 0
-84 -85 0
-84 -86 0
-85 -86 0
87 88 89 90 91 92 93 94 95 96 0
-87 -88 0
-87 -89 0
-87 -90 0
-87 -91 0
-87 -92 0
-87 -93 0
-87 -94 0
-87 -95 0
-87 -96 0
-88 -89 0
-88 -90 0
-88 -91 0
-88 -92 0
-88 -93 0
-88 -94 0
-88 -95 0
-88 -96 0
-89 -90 0
-89 -91 0
-89 -92 0
-89 -93 0
-89 -94 0
-89 -95 0
-89 -96 0
-90 -91 0
-90 -92 0
-90 -93 0
-90 -94 0
-90 -95 0
-90 -96 0
-91 -92 0
-91 -93 0
-91 -94 0
-91 -95 0
-91 -96 0
-92 -93 0
-92 -94 0
-92 -95 0
-92 -96 0
-93 -94 0
-93 -95 0
-93 -96 0
-94 -95 0
-94 -96 0
-95 -96 0
-78 -87 0
-79 -87 0
-79 -88 0
-80 -87 0
-80 -88 0
-80 -89 0
-81 -87 0
-81 -88 0
-81 -89 0
-81 -90 0
-82 -87 0
-82 -88 0
-82 -89 0
-82 -90 0
-82 -91 0
-83 -87 0
-83 -88 0
-83 -89 0
-83 -90 0
-83 -91 0
-83 -92 0
-84 -87 0
-84 -88 0
-84 -89 0
-84 -90 0
-84 -91 0
-84 -92 0
-84 -93 0
-85 -87 0
-85 -88 0
-85 -89 0
-85 -90 0
-85 -91 0
-85 -92 0
-85 -93 0
-85 -94 0
-86 -87 0
-86 -88 0
-86 -89 0
-86 -90 0
-86 -91 0
-86 -92 0
-86 -93 0
-86 -94 0
-86 -95 0
-77 -97 0
-78 97 0
-79 -97 0
-80 97 0
-81 -97 0
-82 97 0
-83 -97 0
-84 97 0
-85 -97 55 0
-85 97 -55 0
-86 -97 -55 0
-86 97 55 0
-87 -113 0
-88 113 0
-89 -113 0
-90 113 0
-91 -113 0
-92 113 0
-93 -113 0
-94 113 0
-95 -113 55 0
-95 113 -55 0
-96 -113 -55 0
-96 113 55 0
-71 97 113 -129 0
-71 97 -113 -129 0
-71 -97 113 -129 0
-71 -97 -113 129 0
-72 97 113 -129 0
-72 97 -113 129 0
-72 -97 113 129 0
-72 -97 -113 129 0
-73 97 113 -129 0
-73 97 -113 129 0
-73 -97 113 129 0
-73 -97 -113 -129 0
-74 97 113 129 0
-74 97 -113 129 0
-74 -97 113 129 0
-74 -97 -113 -129 0
-75 97 113 129 0
-75 97 -113 -129 0
-75 -97 113 -129 0
-75 -97 -113 -129 0
-76 97 113 129 0
-76 97 -113 -129 0
-76 -97 113 -129 0
-76 -97 -113 129 0
-77 98 0
-78 -98 0
-79 -98 0
-80 98 0
-81 -98 0
-82 98 0
-83 -98 0
-84 98 0
-85 -98 56 0
-85 98 -56 0
-86 -98 -56 0
-86 98 56 0
-87 114 0
-88 -114 0
-89 -114 0
-90 114 0
-91 -114 0
-92 114 0
-93 -114 0
-94 114 0
-95 -114 56 0
-95 114 -56 0
-96 -114 -56 0
-96 114 56 0
-71 98 114 -130 0
-71 98 -114 -130 0
-71 -98 114 -130 0
-71 -98 -114 130 0
-72 98 114 -130 0
-72 98 -114 130 0
-72 -98 114 130 0
-72 -98 -114 130 0
-73 98 114 -130 0
-73 98 -114 130 0
-73 -98 114 130 0
-73 -98 -114 -130 0
-74 98 114 130 0
-74 98 -114 130 0
-74 -98 114 130 0
-74 -98 -114 -130 0
-75 98 114 130 0
-75 98 -114 -130 0
-75 -98 114 -130 0
-75 -98 -114 -130 0
-76 98 114 130 0
-76 98 -114 -130 0
-76 -98 114 -130 0
-76 -98 -114 130 0
-77 -99 0
-78 99 0
-79 99 0
-80 -99 0
-81 -99 0
-82 99 0
-83 -99 0
-84 99 0
-85 -99 57 0
-85 99 -57 0
-86 -99 -57 0
-86 99 57 0
-87 -115 0
-88 115 0
-89 115 0
-90 -115 0
-91 -115 0
-92 115 0
-93 -115 0
-94 115 0
-95 -115 57 0
-95 115 -57 0
-96 -115 -57 0
-96 115 57 0
-71 99 115 -131 0
-71 99 -115 -131 0
-71 -99 115 -131 0
-71 -99 -115 131 0
-72 99 115 -131 0
-72 99 -115 131 0
-72 -99 115 131 0
-72 -99 -115 131 0
-73 99 115 -131 0
-73 99 -115 131 0
-73 -99 115 131 0
-73 -99 -115 -131 0
-74 99 115 131 0
-74 99 -115 131 0
-74 -99 115 131 0
-74 -99 -115 -131 0
-75 99 115 131 0
-75 99 -115 -131 0
-75 -99 115 -131 0
-75 -99 -115 -131 0
-76 99 115 131 0
-76 99 -115 -131 0
-76 -99 115 -131 0
-76 -99 -115 131 0
-77 100 0
-78 -100 0
-79 100 0
-80 -100 0
-81 -100 0
-82 100 0
-83 -100 0
-84 100 0
-85 -100 58 0
-85 100 -58 0
-86 -100 -58 0
-86 100 58 0
-87 116 0
-88 -116 0
-89 116 0
-90 -116 0
-91 -116 0
-92 116 0
-93 -116 0
-94 116 0
-95 -116 58 0
-95 116 -58 0
-96 -116 -58 0
-96 116 58 0
-71 100 116 -132 0
-71 100 -116 -132 0
-71 -100 116 -132 0
-71 -100 -116 132 0
-72 100 116 -132 0
-72 100 -116 132 0
-72 -100 116 132 0
-72 -100 -116 132 0
-73 100 116 -132 0
-73 100 -116 132 0
-73 -100 116 132 0
-73 -100 -116 -132 0
-74 100 116 132 0
-74 100 -116 132 0
-74 -100 116 132 0
-74 -100 -116 -132 0
-75 100 116 132 0
-75 100 -116 -132 0
-75 -100 116 -132 0
-75 -100 -116 -132 0
-76 100 116 132 0
-76 100 -116 -132 0
-76 -100 116 -132 0
-76 -100 -116 132 0
-77 -101 0
-78 101 0
-79 -101 0
-80 101 0
-81 101 0
-82 -101 0
-83 -101 0
-84 101 0
-85 -101 59 0
-85 101 -59 0
-86 -101 -59 0
-86 101 59 0
-87 -117 0
-88 117 0
-89 -117 0
-90 117 0
-91 117 0
-92 -117 0
-93 -117 0
-94 117 0
-95 -117 59 0
-95 117 -59 0
-96 -117 -59 0
-96 117 59 0
-71 101 117 -133 0
-71 101 -117 -133 0
-71 -101 117 -133 0
-71 -101 -117 133 0
-72 101 117 -133 0
-72 101 -117 133 0
-72 -101 117 133 0
-72 -101 -117 133 0
-73 101 117 -133 0
-73 101 -117 133 0
-73 -101 117 133 0
-73 -101 -117 -133 0
-74 101 117 133 0
-74 101 -117 133 0
-74 -101 117 133 0
-74 -101 -117 -133 0
-75 101 117 133 0
-75 101 -117 -133 0
-75 -101 117 -133 0
-75 -101 -117 -133 0
-76 101 117 133 0
-76 101 -117 -133 0
-76 -101 117 -133 0
-76 -101 -117 133 0
-77 102 0
-78 -102 0
-79 -102 0
-80 102 0
-81 102 0
-82 -102 0
-83 -102 0
-84 102 0
-85 -102 60 0
-85 102 -60 0
-86 -102 -60 0
-86 102 60 0
-87 118 0
-88 -118 0
-89 -118 0
-90 118 0
-91 118 0
-92 -118 0
-93 -118 0
-94 118 0
-95 -118 60 0
-95 118 -60 0
-96 -118 -60 0
-96 118 60 0
-71 102 118 -134 0
-71 102 -118 -134 0
-71 -102 118 -134 0
-71 -102 -118 134 0
-72 102 118 -134 0
-72 102 -118 134 0
-72 -102 118 134 0
-72 -102 -118 134 0
-73 102 118 -134 0
-73 102 -118 134 0
-73 -102 118 134 0
-73 -102 -118 -134 0
-74 102 118 134 0
-74 102 -118 134 0
-74 -102 118 134 0
-74 -102 -118 -134 0
-75 102 118 134 0
-75 102 -118 -134 0
-75 -102 118 -134 0
-75 -102 -118 -134 0
-76 102 118 134 0
-76 102 -118 -134 0
-76 -102 118 -134 0
-76 -102 -118 134 0
-77 -103 0
-78 103 0
-79 103 0
-80 -103 0
-81 103 0
-82 -103 0
-83 -103 0
-84 103 0
-85 -103 61 0
-85 103 -61 0
-86 -103 -61 0
-86 103 61 0
-87 -119 0
-88 119 0
-89 119 0
-90 -119 0
-91 119 0
-92 -119 0
-93 -119 0
-94 119 0
-95 -119 61 0
-95 119 -61 0
-96 -119 -61 0
-96 119 61 0
-71 103 119 -135 0
-71 103 -119 -135 0
-71 -103 119 -135 0
-71 -103 -119 135 0
-72 103 119 -135 0
-72 103 -119 135 0
-72 -103 119 135 0
-72 -103 -119 135 0
-73 103 119 -135 0
-73 103 -119 135 0
-73 -103 119 135 0
-73 -103 -119 -135 0
-74 103 119 135 0
-74 103 -119 135 0
-74 -103 119 135 0
-74 -103 -119 -135 0
-75 103 119 135 0
-75 103 -119 -135 0
-75 -103 119 -135 0
-75 -103 -119 -135 0
-76 103 119 135 0
-76 103 -119 -135 0
-76 -103 119 -135 0
-76 -103 -119 135 0
-77 104 0
-78 -104 0
-79 104 0
-80 -104 0
-81 104 0
-82 -104 0
-83 -104 0
-84 104 0
-85 -104 62 0
-85 104 -62 0
-86 -104 -62 0
-86 104 62 0
-87 120 0
-88 -120 0
-89 120 0
-90 -120 0
-91 120 0
-92 -120 0
-93 -120 0
-94 120 0
-95 -120 62 0
-95 120 -62 0
-96 -120 -62 0
-96 120 62 0
-71 104 120 -136 0
-71 104 -120 -136 0
-71 -104 120 -136 0
-71 -104 -120 136 0
-72 104 120 -136 0
-72 104 -120 136 0
-72 -104 120 136 0
-72 -104 -120 136 0
-73 104 120 -136 0
-73 104 -120 136 0
-73 -104 120 136 0
-73 -104 -120 -136 0
-74 104 120 136 0
-74 104 -120 136 0
-74 -104 120 136 0
-74 -104 -120 -136 0
-75 104 120 136 0
-75 104 -120 -136 0
-75 -104 120 -136 0
-75 -104 -120 -136 0
-76 104 120 136 0
-76 104 -120 -136 0
-76 -104 120 -136 0
-76 -104 -120 136 0
-77 -105 0
-78 105 0
-79 -105 0
-80 105 0
-81 -105 0
-82 105 0
-83 105 0
-84 -105 0
-85 -105 63 0
-85 105 -63 0
-86 -105 -63 0
-86 105 63 0
-87 -121 0
-88 121 0
-89 -121 0
-90 121 0
-91 -121 0
-92 121 0
-93 121 0
-94 -121 0
-95 -121 63 0
-95 121 -63 0
-96 -121 -63 0
-96 121 63 0
-71 105 121 -137 0
-71 105 -121 -137 0
-71 -105 121 -137 0
-71 -105 -121 137 0
-72 105 121 -137 0
-72 105 -121 137 0
-72 -105 121 137 0
-72 -105 -121 137 0
-73 105 121 -137 0
-73 105 -121 137 0
-73 -105 121 137 0
-73 -105 -121 -137 0
-74 105 121 137 0
-74 105 -121 137 0
-74 -105 121 137 0
-74 -105 -121 -137 0
-75 105 121 137 0
-75 105 -121 -137 0
-75 -105 121 -137 0
-75 -105 -121 -137 0
-76 105 121 137 0
-76 105 -121 -137 0
-76 -105 121 -137 0
-76 -105 -121 137 0
-77 106 0
-78 -106 0
-79 -106 0
-80 106 0
-81 -106 0
-82 106 0
-83 106 0
-84 -106 0
-85 -106 64 0
-85 106 -64 0
-86 -106 -64 0
-86 106 64 0
-87 122 0
-88 -122 0
-89 -122 0
-90 122 0
-91 -122 0
-92 122 0
-93 122 0
-94 -122 0
-95 -122 64 0
-95 122 -64 0
-96 -122 -64 0
-96 122 64 0
-71 106 122 -138 0
-71 106 -122 -138 0
-71 -106 122 -138 0
-71 -106 -122 138 0
-72 106 122 -138 0
-72 106 -122 138 0
-72 -106 122 138 0
-72 -106 -122 138 0
-73 106 122 -138 0
-73 106 -122 138 0
-73 -106 122 138 0
-73 -106 -122 -138 0
-74 106 122 138 0
-74 106 -122 138 0
-74 -106 122 138 0
-74 -106 -122 -138 0
-75 106 122 138 0
-75 106 -122 -138 0
-75 -106 122 -138 0
-75 -106 -122 -138 0
-76 106 122 138 0
-76 106 -122 -138 0
-76 -106 122 -138 0
-76 -106 -122 138 0
-77 -107 0
-78 107 0
-79 107 0
-80 -107 0
-81 -107 0
-82 107 0
-83 107 0
-84 -107 0
-85 -107 65 0
-85 107 -65 0
-86 -107 -65 0
-86 107 65 0
-87 -123 0
-88 123 0
-89 123 0
-90 -123 0
-91 -123 0
-92 123 0
-93 123 0
-94 -123 0
-95 -123 65 0
-95 123 -65 0
-96 -123 -65 0
-96 123 65 0
-71 107 123 -139 0
-71 107 -123 -139 0
-71 -107 123 -139 0
-71 -107 -123 139 0
-72 107 123 -139 0
-72 107 -123 139 0
-72 -107 123 139 0
-72 -107 -123 139 0
-73 107 123 -139 0
-73 107 -123 139 0
-73 -107 123 139 0
-73 -107 -123 -139 0
-74 107 123 139 0
-74 107 -123 139 0
-74 -107 123 139 0
-74 -107 -123 -139 0
-75 107 123 139 0
-75 107 -123 -139 0
-75 -107 123 -139 0
-75 -107 -123 -139 0
-76 107 123 139 0
-76 107 -123 -139 0
-76 -107 123 -139 0
-76 -107 -123 139 0
-77 108 0
-78 -108 0
-79 108 0
-80 -108 0
-81 -108 0
-82 108 0
-83 108 0
-84 -108 0
-85 -108 66 0
-85 108 -66 0
-86 -108 -66 0
-86 108 66 0
-87 124 0
-88 -124 0
-89 124 0
-90 -124 0
-91 -124 0
-92 124 0
-93 124 0
-94 -124 0
-95 -124 66 0
-95 124 -66 0
-96 -124 -66 0
-96 124 66 0
-71 108 124 -140 0
-71 108 -124 -140 0
-71 -108 124 -140 0
-71 -108 -124 140 0
-72 108 124 -140 0
-72 108 -124 140 0
-72 -108 124 140 0
-72 -108 -124 140 0
-73 108 124 -140 0
-73 108 -124 140 0
-73 -108 124 140 0
-73 -108 -124 -140 0
-74 108 124 140 0
-74 108 -124 140 0
-74 -108 124 140 0
-74 -108 -124 -140 0
-75 108 124 140 0
-75 108 -124 -140 0
-75 -108 124 -140 0
-75 -108 -124 -140 0
-76 108 124 140 0
-76 108 -124 -140 0
-76 -108 124 -140 0
-76 -108 -124 140 0
-77 -109 0
-78 109 0
-79 -109 0
-80 109 0
-81 109 0
-82 -109 0
-83 109 0
-84 -109 0
-85 -109 67 0
-85 109 -67 0
-86 -109 -67 0
-86 109 67 0
-87 -125 0
-88 125 0
-89 -125 0
-90 125 0
-91 125 0
-92 -125 0
-93 125 0
-94 -125 0
-95 -125 67 0
-95 125 -67 0
-96 -125 -67 0
-96 125 67 0
-71 109 125 -141 0
-71 109 -125 -141 0
-71 -109 125 -141 0
-71 -109 -125 141 0
-72 109 125 -141 0
-72 109 -125 141 0
-72 -109 125 141 0
-72 -109 -125 141 0
-73 109 125 -141 0
-73 109 -125 141 0
-73 -109 125 141 0
-73 -109 -125 -141 0
-74 109 125 141 0
-74 109 -125 141 0
-74 -109 125 141 0
-74 -109 -125 -141 0
-75 109 125 141 0
-75 109 -125 -141 0
-75 -109 125 -141 0
-75 -109 -125 -141 0
-76 109 125 141 0
-76 109 -125 -141 0
-76 -109 125 -141 0
-76 -109 -125 141 0
-77 110 0
-78 -110 0
-79 -110 0
-80 110 0
-81 110 0
-82 -110 0
-83 110 0
-84 -110 0
-85 -110 68 0
-85 110 -68 0
-86 -110 -68 0
-86 110 68 0
-87 126 0
-88 -126 0
-89 -126 0
-90 126 0
-91 126 0
-92 -126 0
-93 126 0
-94 -126 0
-95 -126 68 0
-95 126 -68 0
-96 -126 -68 0
-96 126 68 0
-71 110 126 -142 0
-71 110 -126 -142 0
-71 -110 126 -142 0
-71 -110 -126 142 0
-72 110 126 -142 0
-72 110 -126 142 0
-72 -110 126 142 0
-72 -110 -126 142 0
-73 110 126 -142 0
-73 110 -126 142 0
-73 -110 126 142 0
-73 -110 -126 -142 0
-74 110 126 142 0
-74 110 -126 142 0
-74 -110 126 142 0
-74 -110 -126 -142 0
-75 110 126 142 0
-75 110 -126 -142 0
-75 -110 126 -142 0
-75 -110 -126 -142 0
-76 110 126 142 0
-76 110 -126 -142 0
-76 -110 126 -142 0
-76 -110 -126 142 0
-77 -111 0
-78 111 0
-79 111 0
-80 -111 0
-81 111 0
-82 -111 0
-83 111 0
-84 -111 0
-85 -111 69 0
-85 111 -69 0
-86 -111 -69 0
-86 111 69 0
-87 -127 0
-88 127 0
-89 127 0
-90 -127 0
-91 127 0
-92 -127 0
-93 127 0
-94 -127 0
-95 -127 69 0
-95 127 -69 0
-96 -127 -69 0
-96 127 69 0
-71 111 127 -143 0
-71 111 -127 -143 0
-71 -111 127 -143 0
-71 -111 -127 143 0
-72 111 127 -143 0
-72 111 -127 143 0
-72 -111 127 143 0
-72 -111 -127 143 0
-73 111 127 -143 0
-73 111 -127 143 0
-73 -111 127 143 0
-73 -111 -127 -143 0
-74 111 127 143 0
-74 111 -127 143 0
-74 -111 127 143 0
-74 -111 -127 -143 0
-75 111 127 143 0
-75 111 -127 -143 0
-75 -111 127 -143 0
-75 -111 -127 -143 0
-76 111 127 143 0
-76 111 -127 -143 0
-76 -111 127 -143 0
-76 -111 -127 143 0
-77 112 0
-78 -112 0
-79 112 0
-80 -112 0
-81 112 0
-82 -112 0
-83 112 0
-84 -112 0
-85 -112 70 0
-85 112 -70 0
-86 -112 -70 0
-86 112 70 0
-87 128 0
-88 -128 0
-89 128 0
-90 -128 0
-91 128 0
-92 -128 0
-93 128 0
-94 -128 0
-95 -128 70 0
-95 128 -70 0
-96 -128 -70 0
-96 128 70 0
-71 112 128 -144 0
-71 112 -128 -144 0
-71 -112 128 -144 0
-71 -112 -128 144 0
-72 112 128 -144 0
-72 112 -128 144 0
-72 -112 128 144 0
-72 -112 -128 144 0
-73 112 128 -144 0
-73 112 -128 144 0
-73 -112 128 144 0
-73 -112 -128 -144 0
-74 112 128 144 0
-74 112 -128 144 0
-74 -112 128 144 0
-74 -112 -128 -144 0
-75 112 128 144 0
-75 112 -128 -144 0
-75 -112 128 -144 0
-75 -112 -128 -144 0
-76 112 128 144 0
-76 112 -128 -144 0
-76 -112 128 -144 0
-76 -112 -128 144 0
145 146 147 148 149 150 0
-145 -146 0
-145 -147 0
-145 -148 0
-145 -149 0
-145 -150 0
-146 -147 0
-146 -148 0
-146 -149 0
-146 -150 0
-147 -148 0
-147 -149 0
-147 -150 0
-148 -149 0
-148 -150 0
-149 -150 0
151 152 153 154 155 156 157 158 159 160 161 162 0
-151 -152 0
-151 -153 0
-151 -154 0
-151 -155 0
-151 -156 0
-151 -157 0
-151 -158 0
-151 -159 0
-151 -160 0
-151 -161 0
-151 -162 0
-152 -153 0
-152 -154 0
-152 -155 0
-152 -156 0
-152 -157 0
-152 -158 0
-152 -159 0
-152 -160 0
-152 -161 0
-152 -162 0
-153 -154 0
-153 -155 0
-153 -156 0
-153 -157 0
-153 -158 0
-153 -159 0
-153 -160 0
-153 -161 0
-153 -162 0
-154 -155 0
-154 -156 0
-154 -157 0
-154 -158 0
-154 -159 0
-154 -160 0
-154 -161 0
-154 -162 0
-155 -156 0
-155 -157 0
-155 -158 0
-155 -159 0
-155 -160 0
-155 -161 0
-155 -162 0
-156 -157 0
-156 -158 0
-156 -159 0
-156 -160 0
-156 -161 0
-156 -162 0
-157 -158 0
-157 -159 0
-157 -160 0
-157 -161 0
-157 -162 0
-158 -159 0
-158 -160 0
-158 -161 0
-158 -162 0
-159 -160 0
-159 -161 0
-159 -162 0
-160 -161 0
-160 -162 0
-161 -162 0
163 164 165 166 167 168 169 170 171 172 173 174 0
-163 -164 0
-163 -165 0
-163 -166 0
-163 -167 0
-163 -168 0
-163 -169 0
-163 -170 0
-163 -171 0
-163 -172 0
-163 -173 0
-163 -174 0
-164 -165 0
-164 -166 0
-164 -167 0
-164 -168 0
-164 -169 0
-164 -170 0
-164 -171 0
-164 -172 0
-164 -173 0
-164 -174 0
-165 -166 0
-165 -167 0
-165 -168 0
-165 -169 0
-165 -170 0
-165 -171 0
-165 -172 0
-165 -173 0
-165 -174 0
-166 -167 0
-166 -168 0
-166 -169 0
-166 -170 0
-166 -171 0
-166 -172 0
-166 -173 0
-166 -174 0
-167 -168 0
-167 -169 0
-167 -170 0
-167 -171 0
-167 -172 0
-167 -173 0
-167 -174 0
-168 -169 0
-168 -170 0
-168 -171 0
-168 -172 0
-168 -173 0
-168 -174 0
-169 -170 0
-169 -171 0
-169 -172 0
-169 -173 0
-169 -174 0
-170 -171 0
-170 -172 0
-170 -173 0
-170 -174 0
-171 -172 0
-171 -173 0
-171 -174 0
-172 -173 0
-172 -174 0
-173 -174 0
-152 -163 0
-153 -163 0
-153 -164 0
-154 -163 0
-154 -164 0
-154 -165 0
-155 -163 0
-155 -164 0
-155 -165 0
-155 -166 0
-156 -163 0
-156 -164 0
-156 -165 0
-156 -166 0
-156 -167 0
-157 -163 0
-157 -164 0
-157 -165 0
-157 -166 0
-157 -167 0
-157 -168 0
-158 -163 0
-158 -164 0
-158 -165 0
-158 -166 0
-158 -167 0
-158 -168 0
-158 -169 0
-159 -163 0
-159 -164 0
-159 -165 0
-159 -166 0
-159 -167 0
-159 -168 0
-159 -169 0
-159 -170 0
-160 -163 0
-160 -164 0
-160 -165 0
-160 -166 0
-160 -167 0
-160 -168 0
-160 -169 0
-160 -170 0
-160 -171 0
-161 -163 0
-161 -164 0
-161 -165 0
-161 -166 0
-161 -167 0
-161 -168 0
-161 -169 0
-161 -170 0
-161 -171 0
-161 -172 0
-162 -163 0
-162 -164 0
-162 -165 0
-162 -166 0
-162 -167 0
-162 -168 0
-162 -169 0
-162 -170 0
-162 -171 0
-162 -172 0
-162 -173 0
-151 -175 0
-152 175 0
-153 -175 0
-154 175 0
-155 -175 0
-156 175 0
-157 -175 0
-158 175 0
-159 -175 55 0
-159 175 -55 0
-160 -175 -55 0
-160 175 55 0
-161 -175 129 0
-161 175 -129 0
-162 -175 -129 0
-162 175 129 0
-163 -191 0
-164 191 0
-165 -191 0
-166 191 0
-167 -191 0
-168 191 0
-169 -191 0
-170 191 0
-171 -191 55 0
-171 191 -55 0
-172 -191 -55 0
-172 191 55 0
-173 -191 129 0
-173 191 -129 0
-174 -191 -129 0
-174 191 129 0
-145 175 191 -207 0
-145 175 -191 -207 0
-145 -175 191 -207 0
-145 -175 -191 207 0
-146 175 191 -207 0
-146 175 -191 207 0
-146 -175 191 207 0
-146 -175 -191 207 0
-147 175 191 -207 0
-147 175 -191 207 0
-147 -175 191 207 0
-147 -175 -191 -207 0
-148 175 191 207 0
-148 175 -191 207 0
-148 -175 191 207 0
-148 -175 -191 -207 0
-149 175 191 207 0
-149 175 -191 -207 0
-149 -175 191 -207 0
-149 -175 -191 -207 0
-150 175 191 207 0
-150 175 -191 -207 0
-150 -175 191 -207 0
-150 -175 -191 207 0
-151 176 0
-152 -176 0
-153 -176 0
-154 176 0
-155 -176 0
-156 176 0
-157 -176 0
-158 176 0
-159 -176 56 0
-159 176 -56 0
-160 -176 -56 0
-160 176 56 0
-161 -176 130 0
-161 176 -130 0
-162 -176 -130 0
-162 176 130 0
-163 192 0
-164 -192 0
-165 -192 0
-166 192 0
-167 -192 0
-168 192 0
-169 -192 0
-170 192 0
-171 -192 56 0
-171 192 -56 0
-172 -192 -56 0
-172 192 56 0
-173 -192 130 0
-173 192 -130 0
-174 -192 -130 0
-174 192 130 0
-145 176 192 -208 0
-145 176 -192 -208 0
-145 -176 192 -208 0
-145 -176 -192 208 0
-146 176 192 -208 0
-146 176 -192 208 0
-146 -176 192 208 0
-146 -176 -192 208 0
-147 176 192 -208 0
-147 176 -192 208 0
-147 -176 192 208 0
-147 -176 -192 -208 0
-148 176 192 208 0
-148 176 -192 208 0
-148 -176 192 208 0
-148 -176 -192 -208 0
-149 176 192 208 0
-149 176 -192 -208 0
-149 -176 192 -208 0
-149 -176 -192 -208 0
-150 176 192 208 0
-150 176 -192 -208 0
-150 -176 192 -208 0
-150 -176 -192 208 0
-151 -177 0
-152 177 0
-153 177 0
-154 -177 0
-155 -177 0
-156 177 0
-157 -177 0
-158 177 0
-159 -177 57 0
-159 177 -57 0
-160 -177 -57 0
-160 177 57 0
-161 -177 131 0
-161 177 -131 0
-162 -177 -131 0
-162 177 131 0
-163 -193 0
-164 193 0
-165 193 0
-166 -193 0
-167 -193 0
-168 193 0
-169 -193 0
-170 193 0
-171 -193 57 0
-171 193 -57 0
-172 -193 -57 0
-172 193 57 0
-173 -193 131 0
-173 193 -131 0
-174 -193 -131 0
-174 193 131 0
-145 177 193 -209 0
-145 177 -193 -209 0
-145 -177 193 -209 0
-145 -177 -193 209 0
-146 177 193 -209 0
-146 177 -193 209 0
-146 -177 193 209 0
-146 -177 -193 209 0
-147 177 193 -209 0
-147 177 -193 209 0
-147 -177 193 209 0
-147 -177 -193 -209 0
-148 177 193 209 0
-148 177 -193 209 0
-148 -177 193 209 0
-148 -177 -193 -209 0
-149 177 193 209 0
-149 177 -193 -209 0
-149 -177 193 -209 0
-149 -177 -193 -209 0
-150 177 193 209 0
-150 177 -193 -209 0
-150 -177 193 -209 0
-150 -177 -193 209 0
-151 178 0
-152 -178 0
-153 178 0
-154 -178 0
-155 -178 0
-156 178 0
-157 -178 0
-158 178 0
-159 -178 58 0
-159 178 -58 0
-160 -178 -58 0
-160 178 58 0
-161 -178 132 0
-161 178 -132 0
-162 -178 -132 0
-162 178 132 0
-163 194 0
-164 -194 0
-165 194 0
-166 -194 0
-167 -194 0
-168 194 0
-169 -194 0
-170 194 0
-171 -194 58 0
-171 194 -58 0
-172 -194 -58 0
-172 194 58 0
-173 -194 132 0
-173 194 -132 0
-174 -194 -132 0
-174 194 132 0
-145 178 194 -210 0
-145 178 -194 -210 0
-145 -178 194 -210 0
-145 -178 -194 210 0
-146 178 194 -210 0
-146 178 -194 210 0
-146 -178 194 210 0
-146 -178 -194 210 0
-147 178 194 -210 0
-147 178 -194 210 0
-147 -178 194 210 0
-147 -178 -194 -210 0
-148 178 194 210 0
-148 178 -194 210 0
-148 -178 194 210 0
-148 -178 -194 -210 0
-149 178 194 210 0
-149 178 -194 -210 0
-149 -178 194 -210 0
-149 -178 -194 -210 0
-150 178 194 210 0
-150 178 -194 -210 0
-150 -178 194 -210 0
-150 -178 -194 210 0
-151 -179 0
-152 179 0
-153 -179 0
-154 179 0
-155 179 0
-156 -179 0
-157 -179 0
-158 179 0
-159 -179 59 0
-159 179 -59 0
-160 -179 -59 0
-160 179 59 0
-161 -179 133 0
-161 179 -133 0
-162 -179 -133 0
-162 179 133 0
-163 -195 0
-164 195 0
-165 -195 0
-166 195 0
-167 195 0
-168 -195 0
-169 -195 0
-170 195 0
-171 -195 59 0
-171 195 -59 0
-172 -195 -59 0
-172 195 59 0
-173 -195 133 0
-173 195 -133 0
-174 -195 -133 0
-174 195 133 0
-145 179 195 -211 0
-145 179 -195 -211 0
-145 -179 195 -211 0
-145 -179 -195 211 0
-146 179 195 -211 0
-146 179 -195 211 0
-146 -179 195 211 0
-146 -179 -195 211 0
-147 179 195 -211 0
-147 179 -195 211 0
-147 -179 195 211 0
-147 -179 -195 -211 0
-148 179 195 211 0
-148 179 -195 211 0
-148 -179 195 211 0
-148 -179 -195 -211 0
-149 179 195 211 0
-149 179 -195 -211 0
-149 -179 195 -211 0
-149 -179 -195 -211 0
-150 179 195 211 0
-150 179 -195 -211 0
-150 -179 195 -211 0
-150 -179 -195 211 0
-151 180 0
-152 -180 0
-153 -180 0
-154 180 0
-155 180 0
-156 -180 0
-157 -180 0
-158 180 0
-159 -180 60 0
-159 180 -60 0
-160 -180 -60 0
-160 180 60 0
-161 -180 134 0
-161 180 -134 0
-162 -180 -134 0
-162 180 134 0
-163 196 0
-164 -196 0
-165 -196 0
-166 196 0
-167 196 0
-168 -196 0
-169 -196 0
-170 196 0
-171 -196 60 0
-171 196 -60 0
-172 -196 -60 0
-172 196 60 0
-173 -196 134 0
-173 196 -134 0
-174 -196 -134 0
-174 196 134 0
-145 180 196 -212 0
-145 180 -196 -212 0
-145 -180 196 -212 0
-145 -180 -196 212 0
-146 180 196 -212 0
-146 180 -196 212 0
-146 -180 196 212 0
-146 -180 -196 212 0
-147 180 196 -212 0
-147 180 -196 212 0
-147 -180 196 212 0
-147 -180 -196 -212 0
-148 180 196 212 0
-148 180 -196 212 0
-148 -180 196 212 0
-148 -180 -196 -212 0
-149 180 196 212 0
-149 180 -196 -212 0
-149 -180 196 -212 0
-149 -180 -196 -212 0
-150 180 196 212 0
-150 180 -196 -212 0
-150 -180 196 -212 0
-150 -180 -196 212 0
-151 -181 0
-152 181 0
-153 181 0
-154 -181 0
-155 181 0
-156 -181 0
-157 -181 0
-158 181 0
-159 -181 61 0
-159 181 -61 0
-160 -181 -61 0
-160 181 61 0
-161 -181 135 0
-161 181 -135 0
-162 -181 -135 0
-162 181 135 0
-163 -197 0
-164 197 0
-165 197 0
-166 -197 0
-167 197 0
-168 -197 0
-169 -197 0
-170 197 0
-171 -197 61 0
-171 197 -61 0
-172 -197 -61 0
-172 197 61 0
-173 -197 135 0
-173 197 -135 0
-174 -197 -135 0
-174 197 135 0
-145 181 197 -213 0
-145 181 -197 -213 0
-145 -181 197 -213 0
-145 -181 -197 213 0
-146 181 197 -213 0
-146 181 -197 213 0
-146 -181 197 213 0
-146 -181 -197 213 0
-147 181 197 -213 0
-147 181 -197 213 0
-147 -181 197 213 0
-147 -181 -197 -213 0
-148 181 197 213 0
-148 181 -197 213 0
-148 -181 197 213 0
-148 -181 -197 -213 0
-149 181 197 213 0
-149 181 -197 -213 0
-149 -181 197 -213 0
-149 -181 -197 -213 0
-150 181 197 213 0
-150 181 -197 -213 0
-150 -181 197 -213 0
-150 -181 -197 213 0
-151 182 0
-152 -182 0
-153 182 0
-154 -182 0
-155 182 0
-156 -182 0
-157 -182 0
-158 182 0
-159 -182 62 0
-159 182 -62 0
-160 -182 -62 0
-160 182 62 0
-161 -182 136 0
-161 182 -136 0
-162 -182 -136 0
-162 182 136 0
-163 198 0
-164 -198 0
-165 198 0
-166 -198 0
-167 198 0
-168 -198 0
-169 -198 0
-170 198 0
-171 -198 62 0
-171 198 -62 0
-172 -198 -62 0
-172 198 62 0
-173 -198 136 0
-173 198 -136 0
-174 -198 -136 0
-174 198 136 0
-145 182 198 -214 0
-145 182 -198 -214 0
-145 -182 198 -214 0
-145 -182 -198 214 0
-146 182 198 -214 0
-146 182 -198 214 0
-146 -182 198 214 0
-146 -182 -198 214 0
-147 182 198 -214 0
-147 182 -198 214 0
-147 -182 198 214 0
-147 -182 -198 -214 0
-148 182 198 214 0
-148 182 -198 214 0
-148 -182 198 214 0
-148 -182 -198 -214 0
-149 182 198 214 0
-149 182 -198 -214 0
-149 -182 198 -214 0
-149 -182 -198 -214 0
-150 182 198 214 0
-150 182 -198 -214 0
-150 -182 198 -214 0
-150 -182 -198 214 0
-151 -183 0
-152 183 0
-153 -183 0
-154 183 0
-155 -183 0
-156 183 0
-157 183 0
-158 -183 0
-159 -183 63 0
-159 183 -63 0
-160 -183 -63 0
-160 183 63 0
-161 -183 137 0
-161 183 -137 0
-162 -183 -137 0
-162 183 137 0
-163 -199 0
-164 199 0
-165 -199 0
-166 199 0
-167 -199 0
-168 199 0
-169 199 0
-170 -199 0
-171 -199 63 0
-171 199 -63 0
-172 -199 -63 0
-172 199 63 0
-173 -199 137 0
-173 199 -137 0
-174 -199 -137 0
-174 199 137 0
-145 183 199 -215 0
-145 183 -199 -215 0
-145 -183 199 -215 0
-145 -183 -199 215 0
-146 183 199 -215 0
-146 183 -199 215 0
-146 -183 199 215 0
-146 -183 -199 215 0
-147 183 199 -215 0
-147 183 -199 215 0
-147 -183 199 215 0
-147 -183 -199 -215 0
-148 183 199 215 0
-148 183 -199 215 0
-148 -183 199 215 0
-148 -183 -199 -215 0
-149 183 199 215 0
-149 183 -199 -215 0
-149 -183 199 -215 0
-149 -183 -199 -215 0
-150 183 199 215 0
-150 183 -199 -215 0
-150 -183 199 -215 0
-150 -183 -199 215 0
-151 184 0
-152 -184 0
-153 -184 0
-154 184 0
-155 -184 0
-156 184 0
-157 184 0
-158 -184 0
-159 -184 64 0
-159 184 -64 0
-160 -184 -64 0
-160 184 64 0
-161 -184 138 0
-161 184 -138 0
-162 -184 -138 0
-162 184 138 0
-163 200 0
-164 -200 0
-165 -200 0
-166 200 0
-167 -200 0
-168 200 0
-169 200 0
-170 -200 0
-171 -200 64 0
-171 200 -64 0
-172 -200 -64 0
-172 200 64 0
-173 -200 138 0
-173 200 -138 0
-174 -200 -138 0
-174 200 138 0
-145 184 200 -216 0
-145 184 -200 -216 0
-145 -184 200 -216 0
-145 -184 -200 216 0
-146 184 200 -216 0
-146 184 -200 216 0
-146 -184 200 216 0
-146 -184 -200 216 0
-147 184 200 -216 0
-147 184 -200 216 0
-147 -184 200 216 0
-147 -184 -200 -216 0
-148 184 200 216 0
-148 184 -200 216 0
-148 -184 200 216 0
-148 -184 -200 -216 0
-149 184 200 216 0
-149 184 -200 -216 0
-149 -184 200 -216 0
-149 -184 -200 -216 0
-150 184 200 216 0
-150 184 -200 -216 0
-150 -184 200 -216 0
-150 -184 -200 216 0
-151 -185 0
-152 185 0
-153 185 0
-154 -185 0
-155 -185 0
-156 185 0
-157 185 0
-158 -185 0
-159 -185 65 0
-159 185 -65 0
-160 -185 -65 0
-160 185 65 0
-161 -185 139 0
-161 185 -139 0
-162 -185 -139 0
-162 185 139 0
-163 -201 0
-164 201 0
-165 201 0
-166 -201 0
-167 -201 0
-168 201 0
-169 201 0
-170 -201 0
-171 -201 65 0
-171 201 -65 0
-172 -201 -65 0
-172 201 65 0
-173 -201 139 0
-173 201 -139 0
-174 -201 -139 0
-174 201 139 0
-145 185 201 -217 0
-145 185 -201 -217 0
-145 -185 201 -217 0
-145 -185 -201 217 0
-146 185 201 -217 0
-146 185 -201 217 0
-146 -185 201 217 0
-146 -185 -201 217 0
-147 185 201 -217 0
-147 185 -201 217 0
-147 -185 201 217 0
-147 -185 -201 -217 0
-148 185 201 217 0
-148 185 -201 217 0
-148 -185 201 217 0
-148 -185 -201 -217 0
-149 185 201 217 0
-149 185 -201 -217 0
-149 -185 201 -217 0
-149 -185 -201 -217 0
-150 185 201 217 0
-150 185 -201 -217 0
-150 -185 201 -217 0
-150 -185 -201 217 0
-151 186 0
-152 -186 0
-153 186 0
-154 -186 0
-155 -186 0
-156 186 0
-157 186 0
-158 -186 0
-159 -186 66 0
-159 186 -66 0
-160 -186 -66 0
-160 186 66 0
-161 -186 140 0
-161 186 -140 0
-162 -186 -140 0
-162 186 140 0
-163 202 0
-164 -202 0
-165 202 0
-166 -202 0
-167 -202 0
-168 202 0
-169 202 0
-170 -202 0
-171 -202 66 0
-171 202 -66 0
-172 -202 -66 0
-172 202 66 0
-173 -202 140 0
-173 202 -140 0
-174 -202 -140 0
-174 202 140 0
-145 186 202 -218 0
-145 186 -202 -218 0
-145 -186 202 -218 0
-145 -186 -202 218 0
-146 186 202 -218 0
-146 186 -202 218 0
-146 -186 202 218 0
-146 -186 -202 218 0
-147 186 202 -218 0
-147 186 -202 218 0
-147 -186 202 218 0
-147 -186 -202 -218 0
-148 186 202 218 0
-148 186 -202 218 0
-148 -186 202 218 0
-148 -186 -202 -218 0
-149 186 202 218 0
-149 186 -202 -218 0
-149 -186 202 -218 0
-149 -186 -202 -218 0
-150 186 202 218 0
-150 186 -202 -218 0
-150 -186 202 -218 0
-150 -186 -202 218 0
-151 -187 0
-152 187 0
-153 -187 0
-154 187 0
-155 187 0
-156 -187 0
-157 187 0
-158 -187 0
-159 -187 67 0
-159 187 -67 0
-160 -187 -67 0
-160 187 67 0
-161 -187 141 0
-161 187 -141 0
-162 -187 -141 0
-162 187 141 0
-163 -203 0
-164 203 0
-165 -203 0
-166 203 0
-167 203 0
-168 -203 0
-169 203 0
-170 -203 0
-171 -203 67 0
-171 203 -67 0
-172 -203 -67 0
-172 203 67 0
-173 -203 141 0
-173 203 -141 0
-174 -203 -141 0
-174 203 141 0
-145 187 203 -219 0
-145 187 -203 -219 0
-145 -187 203 -219 0
-145 -187 -203 219 0
-146 187 203 -219 0
-146 187 -203 219 0
-146 -187 203 219 0
-146 -187 -203 219 0
-147 187 203 -219 0
-147 187 -203 219 0
-147 -187 203 219 0
-147 -187 -203 -219 0
-148 187 203 219 0
-148 187 -203 219 0
-148 -187 203 219 0
-148 -187 -203 -219 0
-149 187 203 219 0
-149 187 -203 -219 0
-149 -187 203 -219 0
-149 -187 -203 -219 0
-150 187 203 219 0
-150 187 -203 -219 0
-150 -187 203 -219 0
-150 -187 -203 219 0
-151 188 0
-152 -188 0
-153 -188 0
-154 188 0
-155 188 0
-156 -188 0
-157 188 0
-158 -188 0
-159 -188 68 0
-159 188 -68 0
-160 -188 -68 0
-160 188 68 0
-161 -188 142 0
-161 188 -142 0
-162 -188 -142 0
-162 188 142 0
-163 204 0
-164 -204 0
-165 -204 0
-166 204 0
-167 204 0
-168 -204 0
-169 204 0
-170 -204 0
-171 -204 68 0
-171 204 -68 0
-172 -204 -68 0
-172 204 68 0
-173 -204 142 0
-173 204 -142 0
-174 -204 -142 0
-174 204 142 0
-145 188 204 -220 0
-145 188 -204 -220 0
-145 -188 204 -220 0
-145 -188 -204 220 0
-146 188 204 -220 0
-146 188 -204 220 0
-146 -188 204 220 0
-146 -188 -204 220 0
-147 188 204 -220 0
-147 188 -204 220 0
-147 -188 204 220 0
-147 -188 -204 -220 0
-148 188 204 220 0
-148 188 -204 220 0
-148 -188 204 220 0
-148 -188 -204 -220 0
-149 188 204 220 0
-149 188 -204 -220 0
-149 -188 204 -220 0
-149 -188 -204 -220 0
-150 188 204 220 0
-150 188 -204 -220 0
-150 -188 204 -220 0
-150 -188 -204 220 0
-151 -189 0
-152 189 0
-153 189 0
-154 -189 0
-155 189 0
-156 -189 0
-157 189 0
-158 -189 0
-159 -189 69 0
-159 189 -69 0
-160 -189 -69 0
-160 189 69 0
-161 -189 143 0
-161 189 -143 0
-162 -189 -143 0
-162 189 143 0
-163 -205 0
-164 205 0
-165 205 0
-166 -205 0
-167 205 0
-168 -205 0
-169 205 0
-170 -205 0
-171 -205 69 0
-171 205 -69 0
-172 -205 -69 0
-172 205 69 0
-173 -205 143 0
-173 205 -143 0
-174 -205 -143 0
-174 205 143 0
-145 189 205 -221 0
-145 189 -205 -221 0
-145 -189 205 -221 0
-145 -189 -205 221 0
-146 189 205 -221 0
-146 189 -205 221 0
-146 -189 205 221 0
-146 -189 -205 221 0
-147 189 205 -221 0
-147 189 -205 221 0
-147 -189 205 221 0
-147 -189 -205 -221 0
-148 189 205 221 0
-148 189 -205 221 0
-148 -189 205 221 0
-148 -189 -205 -221 0
-149 189 205 221 0
-149 189 -205 -221 0
-149 -189 205 -221 0
-149 -189 -205 -221 0
-150 189 205 221 0
-150 189 -205 -221 0
-150 -189 205 -221 0
-150 -189 -205 221 0
-151 190 0
-152 -190 0
-153 190 0
-154 -190 0
-155 190 0
-156 -190 0
-157 190 0
-158 -190 0
-159 -190 70 0
-159 190 -70 0
-160 -190 -70 0
-160 190 70 0
-161 -190 144 0
-161 190 -144 0
-162 -190 -144 0
-162 190 144 0
-163 206 0
-164 -206 0
-165 206 0
-166 -206 0
-167 206 0
-168 -206 0
-169 206 0
-170 -206 0
-171 -206 70 0
-171 206 -70 0
-172 -206 -70 0
-172 206 70 0
-173 -206 144 0
-173 206 -144 0
-174 -206 -144 0
-174 206 144 0
-145 190 206 -222 0
-145 190 -206 -222 0
-145 -190 206 -222 0
-145 -190 -206 222 0
-146 190 206 -222 0
-146 190 -206 222 0
-146 -190 206 222 0
-146 -190 -206 222 0
-147 190 206 -222 0
-147 190 -206 222 0
-147 -190 206 222 0
-147 -190 -206 -222 0
-148 190 206 222 0
-148 190 -206 222 0
-148 -190 206 222 0
-148 -190 -206 -222 0
-149 190 206 222 0
-149 190 -206 -222 0
-149 -190 206 -222 0
-149 -190 -206 -222 0
-150 190 206 222 0
-150 190 -206 -222 0
-150 -190 206 -222 0
-150 -190 -206 222 0
223 224 225 226 227 228 0
-223 -224 0
-223 -225 0
-223 -226 0
-223 -227 0
-223 -228 0
-224 -225 0
-224 -226 0
-224 -227 0
-224 -228 0
-225 -226 0
-225 -227 0
-225 -228 0
-226 -227 0
-226 -228 0
-227 -228 0
229 230 231 232 233 234 235 236 237 238 239 240 241 242 0
-229 -230 0
-229 -231 0
-229 -232 0
-229 -233 0
-229 -234 0
-229 -235 0
-229 -236 0
-229 -237 0
-229 -238 0
-229 -239 0
-229 -240 0
-229 -241 0
-229 -242 0
-230 -231 0
-230 -232 0
-230 -233 0
-230 -234 0
-230 -235 0
-230 -236 0
-230 -237 0
-230 -238 0
-230 -239 0
-230 -240 0
-230 -241 0
-230 -242 0
-231 -232 0
-231 -233 0
-231 -234 0
-231 -235 0
-231 -236 0
-231 -237 0
-231 -238 0
-231 -239 0
-231 -240 0
-231 -241 0
-231 -242 0
-232 -233 0
-232 -234 0
-232 -235 0
-232 -236 0
-232 -237 0
-232 -238 0
-232 -239 0
-232 -240 0
-232 -241 0
-232 -242 0
-233 -234 0
-233 -235 0
-233 -236 0
-233 -237 0
-233 -238 0
-233 -239 0
-233 -240 0
-233 -241 0
-233 -242 0
-234 -235 0
-234 -236 0
-234 -237 0
-234 -238 0
-234 -239 0
-234 -240 0
-234 -241 0
-234 -242 0
-235 -236 0
-235 -237 0
-235 -238 0
-235 -239 0
-235 -240 0
-235 -241 0
-235 -242 0
-236 -237 0
-236 -238 0
-236 -239 0
-236 -240 0
-236 -241 0
-236 -242 0
-237 -238 0
-237 -239 0
-237 -240 0
-237 -241 0
-237 -242 0
-238 -239 0
-238 -240 0
-238 -241 0
-238 -242 0
-239 -240 0
-239 -241 0
-239 -242 0
-240 -241 0
-240 -242 0
-241 -242 0
243 244 245 246 247 248 249 250 251 252 253 254 255 256 0
-243 -244 0
-243 -245 0
-243 -246 0
-243 -247 0
-243 -248 0
-243 -249 0
-243 -250 0
-243 -251 0
-243 -252 0
-243 -253 0
-243 -254 0
-243 -255 0
-243 -256 0
-244 -245 0
-244 -246 0
-244 -247 0
-244 -248 0
-244 -249 0
-244 -250 0
-244 -251 0
-244 -252 0
-244 -253 0
-244 -254 0
-244 -255 0
-244 -256 0
-245 -246 0
-245 -247 0
-245 -248 0
-245 -249 0
-245 -250 0
-245 -251 0
-245 -252 0
-245 -253 0
-245 -254 0
-245 -255 0
-245 -256 0
-246 -247 0
-246 -248 0
-246 -249 0
-246 -250 0
-246 -251 0
-246 -252 0
-246 -253 0
-246 -254 0
-246 -255 0
-246 -256 0
-247 -248 0
-247 -249 0
-247 -250 0
-247 -251 0
-247 -252 0
-247 -253 0
-247 -254 0
-247 -255 0
-247 -256 0
-248 -249 0
-248 -250 0
-248 -251 0
-248 -252 0
-248 -253 0
-248 -254 0
-248 -255 0
-248 -256 0
-249 -250 0
-249 -251 0
-249 -252 0
-249 -253 0
-249 -254 0
-249 -255 0
-249 -256 0
-250 -251 0
-250 -252 0
-250 -253 0
-250 -254 0
-250 -255 0
-250 -256 0
-251 -252 0
-251 -253 0
-251 -254 0
-251 -255 0
-251 -256 0
-252 -253 0
-252 -254 0
-252 -255 0
-252 -256 0
-253 -254 0
-253 -255 0
-253 -256 0
-254 -255 0
-254 -256 0
-255 -256 0
-230 -243 0
-231 -243 0
-231 -244 0
-232 -243 0
-232 -244 0
-232 -245 0
-233 -243 0
-233 -244 0
-233 -245 0
-233 -246 0
-234 -243 0
-234 -244 0
-234 -245 0
-234 -246 0
-234 -247 0
-235 -243 0
-235 -244 0
-235 -245 0
-235 -246 0
-235 -247 0
-235 -248 0
-236 -243 0
-236 -244 0
-236 -245 0
-236 -246 0
-236 -247 0
-236 -248 0
-236 -249 0
-237 -243 0
-237 -244 0
-237 -245 0
-237 -246 0
-237 -247 0
-237 -248 0
-237 -249 0
-237 -250 0
-238 -243 0
-238 -244 0
-238 -245 0
-238 -246 0
-238 -247 0
-238 -248 0
-238 -249 0
-238 -250 0
-238 -251 0
-239 -243 0
-239 -244 0
-239 -245 0
-239 -246 0
-239 -247 0
-239 -248 0
-239 -249 0
-239 -250 0
-239 -251 0
-239 -252 0
-240 -243 0
-240 -244 0
-240 -245 0
-240 -246 0
-240 -247 0
-240 -248 0
-240 -249 0
-240 -250 0
-240 -251 0
-240 -252 0
-240 -253 0
-241 -243 0
-241 -244 0
-241 -245 0
-241 -246 0
-241 -247 0
-241 -248 0
-241 -249 0
-241 -250 0
-241 -251 0
-241 -252 0
-241 -253 0
-241 -254 0
-242 -243 0
-242 -244 0
-242 -245 0
-242 -246 0
-242 -247 0
-242 -248 0
-242 -249 0
-242 -250 0
-242 -251 0
-242 -252 0
-242 -253 0
-242 -254 0
-242 -255 0
-229 -257 0
-230 257 0
-231 -257 0
-232 257 0
-233 -257 0
-234 257 0
-235 -257 0
-236 257 0
-237 -257 55 0
-237 257 -55 0
-238 -257 -55 0
-238 257 55 0
-239 -257 129 0
-239 257 -129 0
-240 -257 -129 0
-240 257 129 0
-241 -257 207 0
-241 257 -207 0
-242 -257 -207 0
-242 257 207 0
-243 -273 0
-244 273 0
-245 -273 0
-246 273 0
-247 -273 0
-248 273 0
-249 -273 0
-250 273 0
-251 -273 55 0
-251 273 -55 0
-252 -273 -55 0
-252 273 55 0
-253 -273 129 0
-253 273 -129 0
-254 -273 -129 0
-254 273 129 0
-255 -273 207 0
-255 273 -207 0
-256 -273 -207 0
-256 273 207 0
-223 257 273 -289 0
-223 257 -273 -289 0
-223 -257 273 -289 0
-223 -257 -273 289 0
-224 257 273 -289 0
-224 257 -273 289 0
-224 -257 273 289 0
-224 -257 -273 289 0
-225 257 273 -289 0
-225 257 -273 289 0
-225 -257 273 289 0
-225 -257 -273 -289 0
-226 257 273 289 0
-226 257 -273 289 0
-226 -257 273 289 0
-226 -257 -273 -289 0
-227 257 273 289 0
-227 257 -273 -289 0
-227 -257 273 -289 0
-227 -257 -273 -289 0
-228 257 273 289 0
-228 257 -273 -289 0
-228 -257 273 -289 0
-228 -257 -273 289 0
-229 258 0
-230 -258 0
-231 -258 0
-232 258 0
-233 -258 0
-234 258 0
-235 -258 0
-236 258 0
-237 -258 56 0
-237 258 -56 0
-238 -258 -56 0
-238 258 56 0
-239 -258 130 0
-239 258 -130 0
-240 -258 -130 0
-240 258 130 0
-241 -258 208 0
-241 258 -208 0
-242 -258 -208 0
-242 258 208 0
-243 274 0
-244 -274 0
-245 -274 0
-246 274 0
-247 -274 0
-248 274 0
-249 -274 0
-250 274 0
-251 -274 56 0
-251 274 -56 0
-252 -274 -56 0
-252 274 56 0
-253 -274 130 0
-253 274 -130 0
-254 -274 -130 0
-254 274 130 0
-255 -274 208 0
-255 274 -208 0
-256 -274 -208 0
-256 274 208 0
-223 258 274 -290 0
-223 258 -274 -290 0
-223 -258 274 -290 0
-223 -258 -274 290 0
-224 258 274 -290 0
-224 258 -274 290 0
-224 -258 274 290 0
-224 -258 -274 290 0
-225 258 274 -290 0
-225 258 -274 290 0
-225 -258 274 290 0
-225 -258 -274 -290 0
-226 258 274 290 0
-226 258 -274 290 0
-226 -258 274 290 0
-226 -258 -274 -290 0
-227 258 274 290 0
-227 258 -274 -290 0
-227 -258 274 -290 0
-227 -258 -274 -290 0
-228 258 274 290 0
-228 258 -274 -290 0
-228 -258 274 -290 0
-228 -258 -274 290 0
-229 -259 0
-230 259 0
-231 259 0
-232 -259 0
-233 -259 0
-234 259 0
-235 -259 0
-236 259 0
-237 -259 57 0
-237 259 -57 0
-238 -259 -57 0
-238 259 57 0
-239 -259 131 0
-239 259 -131 0
-240 -259 -131 0
-240 259 131 0
-241 -259 209 0
-241 259 -209 0
-242 -259 -209 0
-242 259 209 0
-243 -275 0
-244 275 0
-245 275 0
-246 -275 0
-247 -275 0
-248 275 0
-249 -275 0
-250 275 0
-251 -275 57 0
-251 275 -57 0
-252 -275 -57 0
-252 275 57 0
-253 -275 131 0
-253 275 -131 0
-254 -275 -131 0
-254 275 131 0
-255 -275 209 0
-255 275 -209 0
-256 -275 -209 0
-256 275 209 0
-223 259 275 -291 0
-223 259 -275 -291 0
-223 -259 275 -291 0
-223 -259 -275 291 0
-224 259 275 -291 0
-224 259 -275 291 0
-224 -259 275 291 0
-224 -259 -275 291 0
-225 259 275 -291 0
-225 259 -275 291 0
-225 -259 275 291 0
-225 -259 -275 -291 0
-226 259 275 291 0
-226 259 -275 291 0
-226 -259 275 291 0
-226 -259 -275 -291 0
-227 259 275 291 0
-227 259 -275 -291 0
-227 -259 275 -291 0
-227 -259 -275 -291 0
-228 259 275 291 0
-228 259 -275 -291 0
-228 -259 275 -291 0
-228 -259 -275 291 0
-229 260 0
-230 -260 0
-231 260 0
-232 -260 0
-233 -260 0
-234 260 0
-235 -260 0
-236 260 0
-237 -260 58 0
-237 260 -58 0
-238 -260 -58 0
-238 260 58 0
-239 -260 132 0
-239 260 -132 0
-240 -260 -132 0
-240 260 132 0
-241 -260 210 0
-241 260 -210 0
-242 -260 -210 0
-242 260 210 0
-243 276 0
-244 -276 0
-245 276 0
-246 -276 0
-247 -276 0
-248 276 0
-249 -276 0
-250 276 0
-251 -276 58 0
-251 276 -58 0
-252 -276 -58 0
-252 276 58 0
-253 -276 132 0
-253 276 -132 0
-254 -276 -132 0
-254 276 132 0
-255 -276 210 0
-255 276 -210 0
-256 -276 -210 0
-256 276 210 0
-223 260 276 -292 0
-223 260 -276 -292 0
-223 -260 276 -292 0
-223 -260 -276 292 0
-224 260 276 -292 0
-224 260 -276 292 0
-224 -260 276 292 0
-224 -260 -276 292 0
-225 260 276 -292 0
-225 260 -276 292 0
-225 -260 276 292 0
-225 -260 -276 -292 0
-226 260 276 292 0
-226 260 -276 292 0
-226 -260 276 292 0
-226 -260 -276 -292 0
-227 260 276 292 0
-227 260 -276 -292 0
-227 -260 276 -292 0
-227 -260 -276 -292 0
-228 260 276 292 0
-228 260 -276 -292 0
-228 -260 276 -292 0
-228 -260 -276 292 0
-229 -261 0
-230 261 0
-231 -261 0
-232 261 0
-233 261 0
-234 -261 0
-235 -261 0
-236 261 0
-237 -261 59 0
-237 261 -59 0
-238 -261 -59 0
-238 261 59 0
-239 -261 133 0
-239 261 -133 0
-240 -261 -133 0
-240 261 133 0
-241 -261 211 0
-241 261 -211 0
-242 -261 -211 0
-242 261 211 0
-243 -277 0
-244 277 0
-245 -277 0
-246 277 0
-247 277 0
-248 -277 0
-249 -277 0
-250 277 0
-251 -277 59 0
-251 277 -59 0
-252 -277 -59 0
-252 277 59 0
-253 -277 133 0
-253 277 -133 0
-254 -277 -133 0
-254 277 133 0
-255 -277 211 0
-255 277 -211 0
-256 -277 -211 0
-256 277 211 0
-223 261 277 -293 0
-223 261 -277 -293 0
-223 -261 277 -293 0
-223 -261 -277 293 0
-224 261 277 -293 0
-224 261 -277 293 0
-224 -261 277 293 0
-224 -261 -277 293 0
-225 261 277 -293 0
-225 261 -277 293 0
-225 -261 277 293 0
-225 -261 -277 -293 0
-226 261 277 293 0
-226 261 -277 293 0
-226 -261 277 293 0
-226 -261 -277 -293 0
-227 261 277 293 0
-227 261 -277 -293 0
-227 -261 277 -293 0
-227 -261 -277 -293 0
-228 261 277 293 0
-228 261 -277 -293 0
-228 -261 277 -293 0
-228 -261 -277 293 0
-229 262 0
-230 -262 0
-231 -262 0
-232 262 0
-233 262 0
-234 -262 0
-235 -262 0
-236 262 0
-237 -262 60 0
-237 262 -60 0
-238 -262 -60 0
-238 262 60 0
-239 -262 134 0
-239 262 -134 0
-240 -262 -134 0
-240 262 134 0
-241 -262 212 0
-241 262 -212 0
-242 -262 -212 0
-242 262 212 0
-243 278 0
-244 -278 0
-245 -278 0
-246 278 0
-247 278 0
-248 -278 0
-249 -278 0
-250 278 0
-251 -278 60 0
-251 278 -60 0
-252 -278 -60 0
-252 278 60 0
-253 -278 134 0
-253 278 -134 0
-254 -278 -134 0
-254 278 134 0
-255 -278 212 0
-255 278 -212 0
-256 -278 -212 0
-256 278 212 0
-223 262 278 -294 0
-223 262 -278 -294 0
-223 -262 278 -294 0
-223 -262 -278 294 0
-224 262 278 -294 0
-224 262 -278 294 0
-224 -262 278 294 0
-224 -262 -278 294 0
-225 262 278 -294 0
-225 262 -278 294 0
-225 -262 278 294 0
-225 -262 -278 -294 0
-226 262 278 294 0
-226 262 -278 294 0
-226 -262 278 294 0
-226 -262 -278 -294 0
-227 262 278 294 0
-227 262 -278 -294 0
-227 -262 278 -294 0
-227 -262 -278 -294 0
-228 262 278 294 0
-228 262 -278 -294 0
-228 -262 278 -294 0
-228 -262 -278 294 0
-229 -263 0
-230 263 0
-231 263 0
-232 -263 0
-233 263 0
-234 -263 0
-235 -263 0
-236 263 0
-237 -263 61 0
-237 263 -61 0
-238 -263 -61 0
-238 263 61 0
-239 -263 135 0
-239 263 -135 0
-240 -263 -135 0
-240 263 135 0
-241 -263 213 0
-241 263 -213 0
-242 -263 -213 0
-242 263 213 0
-243 -279 0
-244 279 0
-245 279 0
-246 -279 0
-247 279 0
-248 -279 0
-249 -279 0
-250 279 0
-251 -279 61 0
-251 279 -61 0
-252 -279 -61 0
-252 279 61 0
-253 -279 135 0
-253 279 -135 0
-254 -279 -135 0
-254 279 135 0
-255 -279 213 0
-255 279 -213 0
-256 -279 -213 0
-256 279 213 0
-223 263 279 -295 0
-223 263 -279 -295 0
-223 -263 279 -295 0
-223 -263 -279 295 0
-224 263 279 -295 0
-224 263 -279 295 0
-224 -263 279 295 0
-224 -263 -279 295 0
-225 263 279 -295 0
-225 263 -279 295 0
-225 -263 279 295 0
-225 -263 -279 -295 0
-226 263 279 295 0
-226 263 -279 295 0
-226 -263 279 295 0
-226 -263 -279 -295 0
-227 263 279 295 0
-227 263 -279 -295 0
-227 -263 279 -295 0
-227 -263 -279 -295 0
-228 263 279 295 0
-228 263 -279 -295 0
-228 -263 279 -295 0
-228 -263 -279 295 0
-229 264 0
-230 -264 0
-231 264 0
-232 -264 0
-233 264 0
-234 -264 0
-235 -264 0
-236 264 0
-237 -264 62 0
-237 264 -62 0
-238 -264 -62 0
-238 264 62 0
-239 -264 136 0
-239 264 -136 0
-240 -264 -136 0
-240 264 136 0
-241 -264 214 0
-241 264 -214 0
-242 -264 -214 0
-242 264 214 0
-243 280 0
-244 -280 0
-245 280 0
-246 -280 0
-247 280 0
-248 -280 0
-249 -280 0
-250 280 0
-251 -280 62 0
-251 280 -62 0
-252 -280 -62 0
-252 280 62 0
-253 -280 136 0
-253 280 -136 0
-254 -280 -136 0
-254 280 136 0
-255 -280 214 0
-255 280 -214 0
-256 -280 -214 0
-256 280 214 0
-223 264 280 -296 0
-223 264 -280 -296 0
-223 -264 280 -296 0
-223 -264 -280 296 0
-224 264 280 -296 0
-224 264 -280 296 0
-224 -264 280 296 0
-224 -264 -280 296 0
-225 264 280 -296 0
-225 264 -280 296 0
-225 -264 280 296 0
-225 -264 -280 -296 0
-226 264 280 296 0
-226 264 -280 296 0
-226 -264 280 296 0
-226 -264 -280 -296 0
-227 264 280 296 0
-227 264 -280 -296 0
-227 -264 280 -296 0
-227 -264 -280 -296 0
-228 264 280 296 0
-228 264 -280 -296 0
-228 -264 280 -296 0
-228 -264 -280 296 0
-229 -265 0
-230 265 0
-231 -265 0
-232 265 0
-233 -265 0
-234 265 0
-235 265 0
-236 -265 0
-237 -265 63 0
-237 265 -63 0
-238 -265 -63 0
-238 265 63 0
-239 -265 137 0
-239 265 -137 0
-240 -265 -137 0
-240 265 137 0
-241 -265 215 0
-241 265 -215 0
-242 -265 -215 0
-242 265 215 0
-243 -281 0
-244 281 0
-245 -281 0
-246 281 0
-247 -281 0
-248 281 0
-249 281 0
-250 -281 0
-251 -281 63 0
-251 281 -63 0
-252 -281 -63 0
-252 281 63 0
-253 -281 137 0
-253 281 -137 0
-254 -281 -137 0
-254 281 137 0
-255 -281 215 0
-255 281 -215 0
-256 -281 -215 0
-256 281 215 0
-223 265 281 -297 0
-223 265 -281 -297 0
-223 -265 281 -297 0
-223 -265 -281 297 0
-224 265 281 -297 0
-224 265 -281 297 0
-224 -265 281 297 0
-224 -265 -281 297 0
-225 265 281 -297 0
-225 265 -281 297 0
-225 -265 281 297 0
-225 -265 -281 -297 0
-226 265 281 297 0
-226 265 -281 297 0
-226 -265 281 297 0
-226 -265 -281 -297 0
-227 265 281 297 0
-227 265 -281 -297 0
-227 -265 281 -297 0
-227 -265 -281 -297 0
-228 265 281 297 0
-228 265 -281 -297 0
-228 -265 281 -297 0
-228 -265 -281 297 0
-229 266 0
-230 -266 0
-231 -266 0
-232 266 0
-233 -266 0
-234 266 0
-235 266 0
-236 -266 0
-237 -266 64 0
-237 266 -64 0
-238 -266 -64 0
-238 266 64 0
-239 -266 138 0
-239 266 -138 0
-240 -266 -138 0
-240 266 138 0
-241 -266 216 0
-241 266 -216 0
-242 -266 -216 0
-242 266 216 0
-243 282 0
-244 -282 0
-245 -282 0
-246 282 0
-247 -282 0
-248 282 0
-249 282 0
-250 -282 0
-251 -282 64 0
-251 282 -64 0
-252 -282 -64 0
-252 282 64 0
-253 -282 138 0
-253 282 -138 0
-254 -282 -138 0
-254 282 138 0
-255 -282 216 0
-255 282 -216 0
-256 -282 -216 0
-256 282 216 0
-223 266 282 -298 0
-223 266 -282 -298 0
-223 -266 282 -298 0
-223 -266 -282 298 0
-224 266 282 -298 0
-224 266 -282 298 0
-224 -266 282 298 0
-224 -266 -282 298 0
-225 266 282 -298 0
-225 266 -282 298 0
-225 -266 282 298 0
-225 -266 -282 -298 0
-226 266 282 298 0
-226 266 -282 298 0
-226 -266 282 298 0
-226 -266 -282 -298 0
-227 266 282 298 0
-227 266 -282 -298 0
-227 -266 282 -298 0
-227 -266 -282 -298 0
-228 266 282 298 0
-228 266 -282 -298 0
-228 -266 282 -298 0
-228 -266 -282 298 0
-229 -267 0
-230 267 0
-231 267 0
-232 -267 0
-233 -267 0
-234 267 0
-235 267 0
-236 -267 0
-237 -267 65 0
-237 267 -65 0
-238 -267 -65 0
-238 267 65 0
-239 -267 139 0
-239 267 -139 0
-240 -267 -139 0
-240 267 139 0
-241 -267 217 0
-241 267 -217 0
-242 -267 -217 0
-242 267 217 0
-243 -283 0
-244 283 0
-245 283 0
-246 -283 0
-247 -283 0
-248 283 0
-249 283 0
-250 -283 0
-251 -283 65 0
-251 283 -65 0
-252 -283 -65 0
-252 283 65 0
-253 -283 139 0
-253 283 -139 0
-254 -283 -139 0
-254 283 139 0
-255 -283 217 0
-255 283 -217 0
-256 -283 -217 0
-256 283 217 0
-223 267 283 -299 0
-223 267 -283 -299 0
-223 -267 283 -299 0
-223 -267 -283 299 0
-224 267 283 -299 0
-224 267 -283 299 0
-224 -267 283 299 0
-224 -267 -283 299 0
-225 267 283 -299 0
-225 267 -283 299 0
-225 -267 283 299 0
-225 -267 -283 -299 0
-226 267 283 299 0
-226 267 -283 299 0
-226 -267 283 299 0
-226 -267 -283 -299 0
-227 267 283 299 0
-227 267 -283 -299 0
-227 -267 283 -299 0
-227 -267 -283 -299 0
-228 267 283 299 0
-228 267 -283 -299 0
-228 -267 283 -299 0
-228 -267 -283 299 0
-229 268 0
-230 -268 0
-231 268 0
-232 -268 0
-233 -268 0
-234 268 0
-235 268 0
-236 -268 0
-237 -268 66 0
-237 268 -66 0
-238 -268 -66 0
-238 268 66 0
-239 -268 140 0
-239 268 -140 0
-240 -268 -140 0
-240 268 140 0
-241 -268 218 0
-241 268 -218 0
-242 -268 -218 0
-242 268 218 0
-243 284 0
-244 -284 0
-245 284 0
-246 -284 0
-247 -284 0
-248 284 0
-249 284 0
-250 -284 0
-251 -284 66 0
-251 284 -66 0
-252 -284 -66 0
-252 284 66 0
-253 -284 140 0
-253 284 -140 0
-254 -284 -140 0
-254 284 140 0
-255 -284 218 0
-255 284 -218 0
-256 -284 -218 0
-256 284 218 0
-223 268 284 -300 0
-223 268 -284 -300 0
-223 -268 284 -300 0
-223 -268 -284 300 0
-224 268 284 -300 0
-224 268 -284 300 0
-224 -268 284 300 0
-224 -268 -284 300 0
-225 268 284 -300 0
-225 268 -284 300 0
-225 -268 284 300 0
-225 -268 -284 -300 0
-226 268 284 300 0
-226 268 -284 300 0
-226 -268 284 300 0
-226 -268 -284 -300 0
-227 268 284 300 0
-227 268 -284 -300 0
-227 -268 284 -300 0
-227 -268 -284 -300 0
-228 268 284 300 0
-228 268 -284 -300 0
-228 -268 284 -300 0
-228 -268 -284 300 0
-229 -269 0
-230 269 0
-231 -269 0
-232 269 0
-233 269 0
-234 -269 0
-235 269 0
-236 -269 0
-237 -269 67 0
-237 269 -67 0
-238 -269 -67 0
-238 269 67 0
-239 -269 141 0
-239 269 -141 0
-240 -269 -141 0
-240 269 141 0
-241 -269 219 0
-241 269 -219 0
-242 -269 -219 0
-242 269 219 0
-243 -285 0
-244 285 0
-245 -285 0
-246 285 0
-247 285 0
-248 -285 0
-249 285 0
-250 -285 0
-251 -285 67 0
-251 285 -67 0
-252 -285 -67 0
-252 285 67 0
-253 -285 141 0
-253 285 -141 0
-254 -285 -141 0
-254 285 141 0
-255 -285 219 0
-255 285 -219 0
-256 -285 -219 0
-256 285 219 0
-223 269 285 -301 0
-223 269 -285 -301 0
-223 -269 285 -301 0
-223 -269 -285 301 0
-224 269 285 -301 0
-224 269 -285 301 0
-224 -269 285 301 0
-224 -269 -285 301 0
-225 269 285 -301 0
-225 269 -285 301 0
-225 -269 285 301 0
-225 -269 -285 -301 0
-226 269 285 301 0
-226 269 -285 301 0
-226 -269 285 301 0
-226 -269 -285 -301 0
-227 269 285 301 0
-227 269 -285 -301 0
-227 -269 285 -301 0
-227 -269 -285 -301 0
-228 269 285 301 0
-228 269 -285 -301 0
-228 -269 285 -301 0
-228 -269 -285 301 0
-229 270 0
-230 -270 0
-231 -270 0
-232 270 0
-233 270 0
-234 -270 0
-235 270 0
-236 -270 0
-237 -270 68 0
-237 270 -68 0
-238 -270 -68 0
-238 270 68 0
-239 -270 142 0
-239 270 -142 0
-240 -270 -142 0
-240 270 142 0
-241 -270 220 0
-241 270 -220 0
-242 -270 -220 0
-242 270 220 0
-243 286 0
-244 -286 0
-245 -286 0
-246 286 0
-247 286 0
-248 -286 0
-249 286 0
-250 -286 0
-251 -286 68 0
-251 286 -68 0
-252 -286 -68 0
-252 286 68 0
-253 -286 142 0
-253 286 -142 0
-254 -286 -142 0
-254 286 142 0
-255 -286 220 0
-255 286 -220 0
-256 -286 -220 0
-256 286 220 0
-223 270 286 -302 0
-223 270 -286 -302 0
-223 -270 286 -302 0
-223 -270 -286 302 0
-224 270 286 -302 0
-224 270 -286 302 0
-224 -270 286 302 0
-224 -270 -286 302 0
-225 270 286 -302 0
-225 270 -286 302 0
-225 -270 286 302 0
-225 -270 -286 -302 0
-226 270 286 302 0
-226 270 -286 302 0
-226 -270 286 302 0
-226 -270 -286 -302 0
-227 270 286 302 0
-227 270 -286 -302 0
-227 -270 286 -302 0
-227 -270 -286 -302 0
-228 270 286 302 0
-228 270 -286 -302 0
-228 -270 286 -302 0
-228 -270 -286 302 0
-229 -271 0
-230 271 0
-231 271 0
-232 -271 0
-233 271 0
-234 -271 0
-235 271 0
-236 -271 0
-237 -271 69 0
-237 271 -69 0
-238 -271 -69 0
-238 271 69 0
-239 -271 143 0
-239 271 -143 0
-240 -271 -143 0
-240 271 143 0
-241 -271 221 0
-241 271 -221 0
-242 -271 -221 0
-242 271 221 0
-243 -287 0
-244 287 0
-245 287 0
-246 -287 0
-247 287 0
-248 -287 0
-249 287 0
-250 -287 0
-251 -287 69 0
-251 287 -69 0
-252 -287 -69 0
-252 287 69 0
-253 -287 143 0
-253 287 -143 0
-254 -287 -143 0
-254 287 143 0
-255 -287 221 0
-255 287 -221 0
-256 -287 -221 0
-256 287 221 0
-223 271 287 -303 0
-223 271 -287 -303 0
-223 -271 287 -303 0
-223 -271 -287 303 0
-224 271 287 -303 0
-224 271 -287 303 0
-224 -271 287 303 0
-224 -271 -287 303 0
-225 271 287 -303 0
-225 271 -287 303 0
-225 -271 287 303 0
-225 -271 -287 -303 0
-226 271 287 303 0
-226 271 -287 303 0
-226 -271 287 303 0
-226 -271 -287 -303 0
-227 271 287 303 0
-227 271 -287 -303 0
-227 -271 287 -303 0
-227 -271 -287 -303 0
-228 271 287 303 0
-228 271 -287 -303 0
-228 -271 287 -303 0
-228 -271 -287 303 0
-229 272 0
-230 -272 0
-231 272 0
-232 -272 0
-233 272 0
-234 -272 0
-235 272 0
-236 -272 0
-237 -272 70 0
-237 272 -70 0
-238 -272 -70 0
-238 272 70 0
-239 -272 144 0
-239 272 -144 0
-240 -272 -144 0
-240 272 144 0
-241 -272 222 0
-241 272 -222 0
-242 -272 -222 0
-242 272 222 0
-243 288 0
-244 -288 0
-245 288 0
-246 -288 0
-247 288 0
-248 -288 0
-249 288 0
-250 -288 0
-251 -288 70 0
-251 288 -70 0
-252 -288 -70 0
-252 288 70 0
-253 -288 144 0
-253 288 -144 0
-254 -288 -144 0
-254 288 144 0
-255 -288 222 0
-255 288 -222 0
-256 -288 -222 0
-256 288 222 0
-223 272 288 -304 0
-223 272 -288 -304 0
-223 -272 288 -304 0
-223 -272 -288 304 0
-224 272 288 -304 0
-224 272 -288 304 0
-224 -272 288 304 0
-224 -272 -288 304 0
-225 272 288 -304 0
-225 272 -288 304 0
-225 -272 288 304 0
-225 -272 -288 -304 0
-226 272 288 304 0
-226 272 -288 304 0
-226 -272 288 304 0
-226 -272 -288 -304 0
-227 272 288 304 0
-227 272 -288 -304 0
-227 -272 288 -304 0
-227 -272 -288 -304 0
-228 272 288 304 0
-228 272 -288 -304 0
-228 -272 288 -304 0
-228 -272 -288 304 0
305 306 307 308 309 310 0
-305 -306 0
-305 -307 0
-305 -308 0
-305 -309 0
-305 -310 0
-306 -307 0
-306 -308 0
-306 -309 0
-306 -310 0
-307 -308 0
-307 -309 0
-307 -310 0
-308 -309 0
-308 -310 0
-309 -310 0
311 312 313 314 315 316 317 318 319 320 321 322 323 324 325 326 0
-311 -312 0
-311 -313 0
-311 -314 0
-311 -315 0
-311 -316 0
-311 -317 0
-311 -318 0
-311 -319 0
-311 -320 0
-311 -321 0
-311 -322 0
-311 -323 0
-311 -324 0
-311 -325 0
-311 -326 0
-312 -313 0
-312 -314 0
-312 -315 0
-312 -316 0
-312 -317 0
-312 -318 0
-312 -319 0
-312 -320 0
-312 -321 0
-312 -322 0
-312 -323 0
-312 -324 0
-312 -325 0
-312 -326 0
-313 -314 0
-313 -315 0
-313 -316 0
-313 -317 0
-313 -318 0
-313 -319 0
-313 -320 0
-313 -321 0
-313 -322 0
-313 -323 0
-313 -324 0
-313 -325 0
-313 -326 0
-314 -315 0
-314 -316 0
-314 -317 0
-314 -318 0
-314 -319 0
-314 -320 0
-314 -321 0
-314 -322 0
-314 -323 0
-314 -324 0
-314 -325 0
-314 -326 0
-315 -316 0
-315 -317 0
-315 -318 0
-315 -319 0
-315 -320 0
-315 -321 0
-315 -322 0
-315 -323 0
-315 -324 0
-315 -325 0
-315 -326 0
-316 -317 0
-316 -318 0
-316 -319 0
-316 -320 0
-316 -321 0
-316 -322 0
-316 -323 0
-316 -324 0
-316 -325 0
-316 -326 0
-317 -318 0
-317 -319 0
-317 -320 0
-317 -321 0
-317 -322 0
-317 -323 0
-317 -324 0
-317 -325 0
-317 -326 0
-318 -319 0
-318 -320 0
-318 -321 0
-318 -322 0
-318 -323 0
-318 -324 0
-318 -325 0
-318 -326 0
-319 -320 0
-319 -321 0
-319 -322 0
-319 -323 0
-319 -324 0
-319 -325 0
-319 -326 0
-320 -321 0
-320 -322 0
-320 -323 0
-320 -324 0
-320 -325 0
-320 -326 0
-321 -322 0
-321 -323 0
-321 -324 0
-321 -325 0
-321 -326 0
-322 -323 0
-322 -324 0
-322 -325 0
-322 -326 0
-323 -324 0
-323 -325 0
-323 -326 0
-324 -325 0
-324 -326 0
-325 -326 0
327 328 329 330 331 332 333 334 335 336 337 338 339 340 341 342 0
-327 -328 0
-327 -329 0
-327 -330 0
-327 -331 0
-327 -332 0
-327 -333 0
-327 -334 0
-327 -335 0
-327 -336 0
-327 -337 0
-327 -338 0
-327 -339 0
-327 -340 0
-327 -341 0
-327 -342 0
-328 -329 0
-328 -330 0
-328 -331 0
-328 -332 0
-328 -333 0
-328 -334 0
-328 -335 0
-328 -336 0
-328 -337 0
-328 -338 0
-328 -339 0
-328 -340 0
-328 -341 0
-328 -342 0
-329 -330 0
-329 -331 0
-329 -332 0
-329 -333 0
-329 -334 0
-329 -335 0
-329 -336 0
-329 -337 0
-329 -338 0
-329 -339 0
-329 -340 0
-329 -341 0
-329 -342 0
-330 -331 0
-330 -332 0
-330 -333 0
-330 -334 0
-330 -335 0
-330 -336 0
-330 -337 0
-330 -338 0
-330 -339 0
-330 -340 0
-330 -341 0
-330 -342 0
-331 -332 0
-331 -333 0
-331 -334 0
-331 -335 0
-331 -336 0
-331 -337 0
-331 -338 0
-331 -339 0
-331 -340 0
-331 -341 0
-331 -342 0
-332 -333 0
-332 -334 0
-332 -335 0
-332 -336 0
-332 -337 0
-332 -338 0
-332 -339 0
-332 -340 0
-332 -341 0
-332 -342 0
-333 -334 0
-333 -335 0
-333 -336 0
-333 -337 0
-333 -338 0
-333 -339 0
-333 -340 0
-333 -341 0
-333 -342 0
-334 -335 0
-334 -336 0
-334 -337 0
-334 -338 0
-334 -339 0
-334 -340 0
-334 -341 0
-334 -342 0
-335 -336 0
-335 -337 0
-335 -338 0
-335 -339 0
-335 -340 0
-335 -341 0
-335 -342 0
-336 -337 0
-336 -338 0
-336 -339 0
-336 -340 0
-336 -341 0
-336 -342 0
-337 -338 0
-337 -339 0
-337 -340 0
-337 -341 0
-337 -342 0
-338 -339 0
-338 -340 0
-338 -341 0
-338 -342 0
-339 -340 0
-339 -341 0
-339 -342 0
-340 -341 0
-340 -342 0
-341 -342 0
-312 -327 0
-313 -327 0
-313 -328 0
-314 -327 0
-314 -328 0
-314 -329 0
-315 -327 0
-315 -328 0
-315 -329 0
-315 -330 0
-316 -327 0
-316 -328 0
-316 -329 0
-316 -330 0
-316 -331 0
-317 -327 0
-317 -328 0
-317 -329 0
-317 -330 0
-317 -331 0
-317 -332 0
-318 -327 0
-318 -328 0
-318 -329 0
-318 -330 0
-318 -331 0
-318 -332 0
-318 -333 0
-319 -327 0
-319 -328 0
-319 -329 0
-319 -330 0
-319 -331 0
-319 -332 0
-319 -333 0
-319 -334 0
-320 -327 0
-320 -328 0
-320 -329 0
-320 -330 0
-320 -331 0
-320 -332 0
-320 -333 0
-320 -334 0
-320 -335 0
-321 -327 0
-321 -328 0
-321 -329 0
-321 -330 0
-321 -331 0
-321 -332 0
-321 -333 0
-321 -334 0
-321 -335 0
-321 -336 0
-322 -327 0
-322 -328 0
-322 -329 0
-322 -330 0
-322 -331 0
-322 -332 0
-322 -333 0
-322 -334 0
-322 -335 0
-322 -336 0
-322 -337 0
-323 -327 0
-323 -328 0
-323 -329 0
-323 -330 0
-323 -331 0
-323 -332 0
-323 -333 0
-323 -334 0
-323 -335 0
-323 -336 0
-323 -337 0
-323 -338 0
-324 -327 0
-324 -328 0
-324 -329 0
-324 -330 0
-324 -331 0
-324 -332 0
-324 -333 0
-324 -334 0
-324 -335 0
-324 -336 0
-324 -337 0
-324 -338 0
-324 -339 0
-325 -327 0
-325 -328 0
-325 -329 0
-325 -330 0
-325 -331 0
-325 -332 0
-325 -333 0
-325 -334 0
-325 -335 0
-325 -336 0
-325 -337 0
-325 -338 0
-325 -339 0
-325 -340 0
-326 -327 0
-326 -328 0
-326 -329 0
-326 -330 0
-326 -331 0
-326 -332 0
-326 -333 0
-326 -334 0
-326 -335 0
-326 -336 0
-326 -337 0
-326 -338 0
-326 -339 0
-326 -340 0
-326 -341 0
-311 -343 0
-312 343 0
-313 -343 0
-314 343 0
-315 -343 0
-316 343 0
-317 -343 0
-318 343 0
-319 -343 55 0
-319 343 -55 0
-320 -343 -55 0
-320 343 55 0
-321 -343 129 0
-321 343 -129 0
-322 -343 -129 0
-322 343 129 0
-323 -343 207 0
-323 343 -207 0
-324 -343 -207 0
-324 343 207 0
-325 -343 289 0
-325 343 -289 0
-326 -343 -289 0
-326 343 289 0
-327 -359 0
-328 359 0
-329 -359 0
-330 359 0
-331 -359 0
-332 359 0
-333 -359 0
-334 359 0
-335 -359 55 0
-335 359 -55 0
-336 -359 -55 0
-336 359 55 0
-337 -359 129 0
-337 359 -129 0
-338 -359 -129 0
-338 359 129 0
-339 -359 207 0
-339 359 -207 0
-340 -359 -207 0
-340 359 207 0
-341 -359 289 0
-341 359 -289 0
-342 -359 -289 0
-342 359 289 0
-305 343 359 -375 0
-305 343 -359 -375 0
-305 -343 359 -375 0
-305 -343 -359 375 0
-306 343 359 -375 0
-306 343 -359 375 0
-306 -343 359 375 0
-306 -343 -359 375 0
-307 343 359 -375 0
-307 343 -359 375 0
-307 -343 359 375 0
-307 -343 -359 -375 0
-308 343 359 375 0
-308 343 -359 375 0
-308 -343 359 375 0
-308 -343 -359 -375 0
-309 343 359 375 0
-309 343 -359 -375 0
-309 -343 359 -375 0
-309 -343 -359 -375 0
-310 343 359 375 0
-310 343 -359 -375 0
-310 -343 359 -375 0
-310 -343 -359 375 0
-311 344 0
-312 -344 0
-313 -344 0
-314 344 0
-315 -344 0
-316 344 0
-317 -344 0
-318 344 0
-319 -344 56 0
-319 344 -56 0
-320 -344 -56 0
-320 344 56 0
-321 -344 130 0
-321 344 -130 0
-322 -344 -130 0
-322 344 130 0
-323 -344 208 0
-323 344 -208 0
-324 -344 -208 0
-324 344 208 0
-325 -344 290 0
-325 344 -290 0
-326 -344 -290 0
-326 344 290 0
-327 360 0
-328 -360 0
-329 -360 0
-330 360 0
-331 -360 0
-332 360 0
-333 -360 0
-334 360 0
-335 -360 56 0
-335 360 -56 0
-336 -360 -56 0
-336 360 56 0
-337 -360 130 0
-337 360 -130 0
-338 -360 -130 0
-338 360 130 0
-339 -360 208 0
-339 360 -208 0
-340 -360 -208 0
-340 360 208 0
-341 -360 290 0
-341 360 -290 0
-342 -360 -290 0
-342 360 290 0
-305 344 360 -376 0
-305 344 -360 -376 0
-305 -344 360 -376 0
-305 -344 -360 376 0
-306 344 360 -376 0
-306 344 -360 376 0
-306 -344 360 376 0
-306 -344 -360 376 0
-307 344 360 -376 0
-307 344 -360 376 0
-307 -344 360 376 0
-307 -344 -360 -376 0
-308 344 360 376 0
-308 344 -360 376 0
-308 -344 360 376 0
-308 -344 -360 -376 0
-309 344 360 376 0
-309 344 -360 -376 0
-309 -344 360 -376 0
-309 -344 -360 -376 0
-310 344 360 376 0
-310 344 -360 -376 0
-310 -344 360 -376 0
-310 -344 -360 376 0
-311 -345 0
-312 345 0
-313 345 0
-314 -345 0
-315 -345 0
-316 345 0
-317 -345 0
-318 345 0
-319 -345 57 0
-319 345 -57 0
-320 -345 -57 0
-320 345 57 0
-321 -345 131 0
-321 345 -131 0
-322 -345 -131 0
-322 345 131 0
-323 -345 209 0
-323 345 -209 0
-324 -345 -209 0
-324 345 209 0
-325 -345 291 0
-325 345 -291 0
-326 -345 -291 0
-326 345 291 0
-327 -361 0
-328 361 0
-329 361 0
-330 -361 0
-331 -361 0
-332 361 0
-333 -361 0
-334 361 0
-335 -361 57 0
-335 361 -57 0
-336 -361 -57 0
-336 361 57 0
-337 -361 131 0
-337 361 -131 0
-338 -361 -131 0
-338 361 131 0
-339 -361 209 0
-339 361 -209 0
-340 -361 -209 0
-340 361 209 0
-341 -361 291 0
-341 361 -291 0
-342 -361 -291 0
-342 361 291 0
-305 345 361 -377 0
-305 345 -361 -377 0
-305 -345 361 -377 0
-305 -345 -361 377 0
-306 345 361 -377 0
-306 345 -361 377 0
-306 -345 361 377 0
-306 -345 -361 377 0
-307 345 361 -377 0
-307 345 -361 377 0
-307 -345 361 377 0
-307 -345 -361 -377 0
-308 345 361 377 0
-308 345 -361 377 0
-308 -345 361 377 0
-308 -345 -361 -377 0
-309 345 361 377 0
-309 345 -361 -377 0
-309 -345 361 -377 0
-309 -345 -361 -377 0
-310 345 361 377 0
-310 345 -361 -377 0
-310 -345 361 -377 0
-310 -345 -361 377 0
-311 346 0
-312 -346 0
-313 346 0
-314 -346 0
-315 -346 0
-316 346 0
-317 -346 0
-318 346 0
-319 -346 58 0
-319 346 -58 0
-320 -346 -58 0
-320 346 58 0
-321 -346 132 0
-321 346 -132 0
-322 -346 -132 0
-322 346 132 0
-323 -346 210 0
-323 346 -210 0
-324 -346 -210 0
-324 346 210 0
-325 -346 292 0
-325 346 -292 0
-326 -346 -292 0
-326 346 292 0
-327 362 0
-328 -362 0
-329 362 0
-330 -362 0
-331 -362 0
-332 362 0
-333 -362 0
-334 362 0
-335 -362 58 0
-335 362 -58 0
-336 -362 -58 0
-336 362 58 0
-337 -362 132 0
-337 362 -132 0
-338 -362 -132 0
-338 362 132 0
-339 -362 210 0
-339 362 -210 0
-340 -362 -210 0
-340 362 210 0
-341 -362 292 0
-341 362 -292 0
-342 -362 -292 0
-342 362 292 0
-305 346 362 -378 0
-305 346 -362 -378 0
-305 -346 362 -378 0
-305 -346 -362 378 0
-306 346 362 -378 0
-306 346 -362 378 0
-306 -346 362 378 0
-306 -346 -362 378 0
-307 346 362 -378 0
-307 346 -362 378 0
-307 -346 362 378 0
-307 -346 -362 -378 0
-308 346 362 378 0
-308 346 -362 378 0
-308 -346 362 378 0
-308 -346 -362 -378 0
-309 346 362 378 0
-309 346 -362 -378 0
-309 -346 362 -378 0
-309 -346 -362 -378 0
-310 346 362 378 0
-310 346 -362 -378 0
-310 -346 362 -378 0
-310 -346 -362 378 0
-311 -347 0
-312 347 0
-313 -347 0
-314 347 0
-315 347 0
-316 -347 0
-317 -347 0
-318 347 0
-319 -347 59 0
-319 347 -59 0
-320 -347 -59 0
-320 347 59 0
-321 -347 133 0
-321 347 -133 0
-322 -347 -133 0
-322 347 133 0
-323 -347 211 0
-323 347 -211 0
-324 -347 -211 0
-324 347 211 0
-325 -347 293 0
-325 347 -293 0
-326 -347 -293 0
-326 347 293 0
-327 -363 0
-328 363 0
-329 -363 0
-330 363 0
-331 363 0
-332 -363 0
-333 -363 0
-334 363 0
-335 -363 59 0
-335 363 -59 0
-336 -363 -59 0
-336 363 59 0
-337 -363 133 0
-337 363 -133 0
-338 -363 -133 0
-338 363 133 0
-339 -363 211 0
-339 363 -211 0
-340 -363 -211 0
-340 363 211 0
-341 -363 293 0
-341 363 -293 0
-342 -363 -293 0
-342 363 293 0
-305 347 363 -379 0
-305 347 -363 -379 0
-305 -347 363 -379 0
-305 -347 -363 379 0
-306 347 363 -379 0
-306 347 -363 379 0
-306 -347 363 379 0
-306 -347 -363 379 0
-307 347 363 -379 0
-307 347 -363 379 0
-307 -347 363 379 0
-307 -347 -363 -379 0
-308 347 363 379 0
-308 347 -363 379 0
-308 -347 363 379 0
-308 -347 -363 -379 0
-309 347 363 379 0
-309 347 -363 -379 0
-309 -347 363 -379 0
-309 -347 -363 -379 0
-310 347 363 379 0
-310 347 -363 -379 0
-310 -347 363 -379 0
-310 -347 -363 379 0
-311 348 0
-312 -348 0
-313 -348 0
-314 348 0
-315 348 0
-316 -348 0
-317 -348 0
-318 348 0
-319 -348 60 0
-319 348 -60 0
-320 -348 -60 0
-320 348 60 0
-321 -348 134 0
-321 348 -134 0
-322 -348 -134 0
-322 348 134 0
-323 -348 212 0
-323 348 -212 0
-324 -348 -212 0
-324 348 212 0
-325 -348 294 0
-325 348 -294 0
-326 -348 -294 0
-326 348 294 0
-327 364 0
-328 -364 0
-329 -364 0
-330 364 0
-331 364 0
-332 -364 0
-333 -364 0
-334 364 0
-335 -364 60 0
-335 364 -60 0
-336 -364 -60 0
-336 364 60 0
-337 -364 134 0
-337 364 -134 0
-338 -364 -134 0
-338 364 134 0
-339 -364 212 0
-339 364 -212 0
-340 -364 -212 0
-340 364 212 0
-341 -364 294 0
-341 364 -294 0
-342 -364 -294 0
-342 364 294 0
-305 348 364 -380 0
-305 348 -364 -380 0
-305 -348 364 -380 0
-305 -348 -364 380 0
-306 348 364 -380 0
-306 348 -364 380 0
-306 -348 364 380 0
-306 -348 -364 380 0
-307 348 364 -380 0
-307 348 -364 380 0
-307 -348 364 380 0
-307 -348 -364 -380 0
-308 348 364 380 0
-308 348 -364 380 0
-308 -348 364 380 0
-308 -348 -364 -380 0
-309 348 364 380 0
-309 348 -364 -380 0
-309 -348 364 -380 0
-309 -348 -364 -380 0
-310 348 364 380 0
-310 348 -364 -380 0
-310 -348 364 -380 0
-310 -348 -364 380 0
-311 -349 0
-312 349 0
-313 349 0
-314 -349 0
-315 349 0
-316 -349 0
-317 -349 0
-318 349 0
-319 -349 61 0
-319 349 -61 0
-320 -349 -61 0
-320 349 61 0
-321 -349 135 0
-321 349 -135 0
-322 -349 -135 0
-322 349 135 0
-323 -349 213 0
-323 349 -213 0
-324 -349 -213 0
-324 349 213 0
-325 -349 295 0
-325 349 -295 0
-326 -349 -295 0
-326 349 295 0
-327 -365 0
-328 365 0
-329 365 0
-330 -365 0
-331 365 0
-332 -365 0
-333 -365 0
-334 365 0
-335 -365 61 0
-335 365 -61 0
-336 -365 -61 0
-336 365 61 0
-337 -365 135 0
-337 365 -135 0
-338 -365 -135 0
-338 365 135 0
-339 -365 213 0
-339 365 -213 0
-340 -365 -213 0
-340 365 213 0
-341 -365 295 0
-341 365 -295 0
-342 -365 -295 0
-342 365 295 0
-305 349 365 -381 0
-305 349 -365 -381 0
-305 -349 365 -381 0
-305 -349 -365 381 0
-306 349 365 -381 0
-306 349 -365 381 0
-306 -349 365 381 0
-306 -349 -365 381 0
-307 349 365 -381 0
-307 349 -365 381 0
-307 -349 365 381 0
-307 -349 -365 -381 0
-308 349 365 381 0
-308 349 -365 381 0
-308 -349 365 381 0
-308 -349 -365 -381 0
-309 349 365 381 0
-309 349 -365 -381 0
-309 -349 365 -381 0
-309 -349 -365 -381 0
-310 349 365 381 0
-310 349 -365 -381 0
-310 -349 365 -381 0
-310 -349 -365 381 0
-311 350 0
-312 -350 0
-313 350 0
-314 -350 0
-315 350 0
-316 -350 0
-317 -350 0
-318 350 0
-319 -350 62 0
-319 350 -62 0
-320 -350 -62 0
-320 350 62 0
-321 -350 136 0
-321 350 -136 0
-322 -350 -136 0
-322 350 136 0
-323 -350 214 0
-323 350 -214 0
-324 -350 -214 0
-324 350 214 0
-325 -350 296 0
-325 350 -296 0
-326 -350 -296 0
-326 350 296 0
-327 366 0
-328 -366 0
-329 366 0
-330 -366 0
-331 366 0
-332 -366 0
-333 -366 0
-334 366 0
-335 -366 62 0
-335 366 -62 0
-336 -366 -62 0
-336 366 62 0
-337 -366 136 0
-337 366 -136 0
-338 -366 -136 0
-338 366 136 0
-339 -366 214 0
-339 366 -214 0
-340 -366 -214 0
-340 366 214 0
-341 -366 296 0
-341 366 -296 0
-342 -366 -296 0
-342 366 296 0
-305 350 366 -382 0
-305 350 -366 -382 0
-305 -350 366 -382 0
-305 -350 -366 382 0
-306 350 366 -382 0
-306 350 -366 382 0
-306 -350 366 382 0
-306 -350 -366 382 0
-307 350 366 -382 0
-307 350 -366 382 0
-307 -350 366 382 0
-307 -350 -366 -382 0
-308 350 366 382 0
-308 350 -366 382 0
-308 -350 366 382 0
-308 -350 -366 -382 0
-309 350 366 382 0
-309 350 -366 -382 0
-309 -350 366 -382 0
-309 -350 -366 -382 0
-310 350 366 382 0
-310 350 -366 -382 0
-310 -350 366 -382 0
-310 -350 -366 382 0
-311 -351 0
-312 351 0
-313 -351 0
-314 351 0
-315 -351 0
-316 351 0
-317 351 0
-318 -351 0
-319 -351 63 0
-319 351 -63 0
-320 -351 -63 0
-320 351 63 0
-321 -351 137 0
-321 351 -137 0
-322 -351 -137 0
-322 351 137 0
-323 -351 215 0
-323 351 -215 0
-324 -351 -215 0
-324 351 215 0
-325 -351 297 0
-325 351 -297 0
-326 -351 -297 0
-326 351 297 0
-327 -367 0
-328 367 0
-329 -367 0
-330 367 0
-331 -367 0
-332 367 0
-333 367 0
-334 -367 0
-335 -367 63 0
-335 367 -63 0
-336 -367 -63 0
-336 367 63 0
-337 -367 137 0
-337 367 -137 0
-338 -367 -137 0
-338 367 137 0
-339 -367 215 0
-339 367 -215 0
-340 -367 -215 0
-340 367 215 0
-341 -367 297 0
-341 367 -297 0
-342 -367 -297 0
-342 367 297 0
-305 351 367 -383 0
-305 351 -367 -383 0
-305 -351 367 -383 0
-305 -351 -367 383 0
-306 351 367 -383 0
-306 351 -367 383 0
-306 -351 367 383 0
-306 -351 -367 383 0
-307 351 367 -383 0
-307 351 -367 383 0
-307 -351 367 383 0
-307 -351 -367 -383 0
-308 351 367 383 0
-308 351 -367 383 0
-308 -351 367 383 0
-308 -351 -367 -383 0
-309 351 367 383 0
-309 351 -367 -383 0
-309 -351 367 -383 0
-309 -351 -367 -383 0
-310 351 367 383 0
-310 351 -367 -383 0
-310 -351 367 -383 0
-310 -351 -367 383 0
-311 352 0
-312 -352 0
-313 -352 0
-314 352 0
-315 -352 0
-316 352 0
-317 352 0
-318 -352 0
-319 -352 64 0
-319 352 -64 0
-320 -352 -64 0
-320 352 64 0
-321 -352 138 0
-321 352 -138 0
-322 -352 -138 0
-322 352 138 0
-323 -352 216 0
-323 352 -216 0
-324 -352 -216 0
-324 352 216 0
-325 -352 298 0
-325 352 -298 0
-326 -352 -298 0
-326 352 298 0
-327 368 0
-328 -368 0
-329 -368 0
-330 368 0
-331 -368 0
-332 368 0
-333 368 0
-334 -368 0
-335 -368 64 0
-335 368 -64 0
-336 -368 -64 0
-336 368 64 0
-337 -368 138 0
-337 368 -138 0
-338 -368 -138 0
-338 368 138 0
-339 -368 216 0
-339 368 -216 0
-340 -368 -216 0
-340 368 216 0
-341 -368 298 0
-341 368 -298 0
-342 -368 -298 0
-342 368 298 0
-305 352 368 -384 0
-305 352 -368 -384 0
-305 -352 368 -384 0
-305 -352 -368 384 0
-306 352 368 -384 0
-306 352 -368 384 0
-306 -352 368 384 0
-306 -352 -368 384 0
-307 352 368 -384 0
-307 352 -368 384 0
-307 -352 368 384 0
-307 -352 -368 -384 0
-308 352 368 384 0
-308 352 -368 384 0
-308 -352 368 384 0
-308 -352 -368 -384 0
-309 352 368 384 0
-309 352 -368 -384 0
-309 -352 368 -384 0
-309 -352 -368 -384 0
-310 352 368 384 0
-310 352 -368 -384 0
-310 -352 368 -384 0
-310 -352 -368 384 0
-311 -353 0
-312 353 0
-313 353 0
-314 -353 0
-315 -353 0
-316 353 0
-317 353 0
-318 -353 0
-319 -353 65 0
-319 353 -65 0
-320 -353 -65 0
-320 353 65 0
-321 -353 139 0
-321 353 -139 0
-322 -353 -139 0
-322 353 139 0
-323 -353 217 0
-323 353 -217 0
-324 -353 -217 0
-324 353 217 0
-325 -353 299 0
-325 353 -299 0
-326 -353 -299 0
-326 353 299 0
-327 -369 0
-328 369 0
-329 369 0
-330 -369 0
-331 -369 0
-332 369 0
-333 369 0
-334 -369 0
-335 -369 65 0
-335 369 -65 0
-336 -369 -65 0
-336 369 65 0
-337 -369 139 0
-337 369 -139 0
-338 -369 -139 0
-338 369 139 0
-339 -369 217 0
-339 369 -217 0
-340 -369 -217 0
-340 369 217 0
-341 -369 299 0
-341 369 -299 0
-342 -369 -299 0
-342 369 299 0
-305 353 369 -385 0
-305 353 -369 -385 0
-305 -353 369 -385 0
-305 -353 -369 385 0
-306 353 369 -385 0
-306 353 -369 385 0
-306 -353 369 385 0
-306 -353 -369 385 0
-307 353 369 -385 0
-307 353 -369 385 0
-307 -353 369 385 0
-307 -353 -369 -385 0
-308 353 369 385 0
-308 353 -369 385 0
-308 -353 369 385 0
-308 -353 -369 -385 0
-309 353 369 385 0
-309 353 -369 -385 0
-309 -353 369 -385 0
-309 -353 -369 -385 0
-310 353 369 385 0
-310 353 -369 -385 0
-310 -353 369 -385 0
-310 -353 -369 385 0
-311 354 0
-312 -354 0
-313 354 0
-314 -354 0
-315 -354 0
-316 354 0
-317 354 0
-318 -354 0
-319 -354 66 0
-319 354 -66 0
-320 -354 -66 0
-320 354 66 0
-321 -354 140 0
-321 354 -140 0
-322 -354 -140 0
-322 354 140 0
-323 -354 218 0
-323 354 -218 0
-324 -354 -218 0
-324 354 218 0
-325 -354 300 0
-325 354 -300 0
-326 -354 -300 0
-326 354 300 0
-327 370 0
-328 -370 0
-329 370 0
-330 -370 0
-331 -370 0
-332 370 0
-333 370 0
-334 -370 0
-335 -370 66 0
-335 370 -66 0
-336 -370 -66 0
-336 370 66 0
-337 -370 140 0
-337 370 -140 0
-338 -370 -140 0
-338 370 140 0
-339 -370 218 0
-339 370 -218 0
-340 -370 -218 0
-340 370 218 0
-341 -370 300 0
-341 370 -300 0
-342 -370 -300 0
-342 370 300 0
-305 354 370 -386 0
-305 354 -370 -386 0
-305 -354 370 -386 0
-305 -354 -370 386 0
-306 354 370 -386 0
-306 354 -370 386 0
-306 -354 370 386 0
-306 -354 -370 386 0
-307 354 370 -386 0
-307 354 -370 386 0
-307 -354 370 386 0
-307 -354 -370 -386 0
-308 354 370 386 0
-308 354 -370 386 0
-308 -354 370 386 0
-308 -354 -370 -386 0
-309 354 370 386 0
-309 354 -370 -386 0
-309 -354 370 -386 0
-309 -354 -370 -386 0
-310 354 370 386 0
-310 354 -370 -386 0
-310 -354 370 -386 0
-310 -354 -370 386 0
-311 -355 0
-312 355 0
-313 -355 0
-314 355 0
-315 355 0
-316 -355 0
-317 355 0
-318 -355 0
-319 -355 67 0
-319 355 -67 0
-320 -355 -67 0
-320 355 67 0
-321 -355 141 0
-321 355 -141 0
-322 -355 -141 0
-322 355 141 0
-323 -355 219 0
-323 355 -219 0
-324 -355 -219 0
-324 355 219 0
-325 -355 301 0
-325 355 -301 0
-326 -355 -301 0
-326 355 301 0
-327 -371 0
-328 371 0
-329 -371 0
-330 371 0
-331 371 0
-332 -371 0
-333 371 0
-334 -371 0
-335 -371 67 0
-335 371 -67 0
-336 -371 -67 0
-336 371 67 0
-337 -371 141 0
-337 371 -141 0
-338 -371 -141 0
-338 371 141 0
-339 -371 219 0
-339 371 -219 0
-340 -371 -219 0
-340 371 219 0
-341 -371 301 0
-341 371 -301 0
-342 -371 -301 0
-342 371 301 0
-305 355 371 -387 0
-305 355 -371 -387 0
-305 -355 371 -387 0
-305 -355 -371 387 0
-306 355 371 -387 0
-306 355 -371 387 0
-306 -355 371 387 0
-306 -355 -371 387 0
-307 355 371 -387 0
-307 355 -371 387 0
-307 -355 371 387 0
-307 -355 -371 -387 0
-308 355 371 387 0
-308 355 -371 387 0
-308 -355 371 387 0
-308 -355 -371 -387 0
-309 355 371 387 0
-309 355 -371 -387 0
-309 -355 371 -387 0
-309 -355 -371 -387 0
-310 355 371 387 0
-310 355 -371 -387 0
-310 -355 371 -387 0
-310 -355 -371 387 0
-311 356 0
-312 -356 0
-313 -356 0
-314 356 0
-315 356 0
-316 -356 0
-317 356 0
-318 -356 0
-319 -356 68 0
-319 356 -68 0
-320 -356 -68 0
-320 356 68 0
-321 -356 142 0
-321 356 -142 0
-322 -356 -142 0
-322 356 142 0
-323 -356 220 0
-323 356 -220 0
-324 -356 -220 0
-324 356 220 0
-325 -356 302 0
-325 356 -302 0
-326 -356 -302 0
-326 356 302 0
-327 372 0
-328 -372 0
-329 -372 0
-330 372 0
-331 372 0
-332 -372 0
-333 372 0
-334 -372 0
-335 -372 68 0
-335 372 -68 0
-336 -372 -68 0
-336 372 68 0
-337 -372 142 0
-337 372 -142 0
-338 -372 -142 0
-338 372 142 0
-339 -372 220 0
-339 372 -220 0
-340 -372 -220 0
-340 372 220 0
-341 -372 302 0
-341 372 -302 0
-342 -372 -302 0
-342 372 302 0
-305 356 372 -388 0
-305 356 -372 -388 0
-305 -356 372 -388 0
-305 -356 -372 388 0
-306 356 372 -388 0
-306 356 -372 388 0
-306 -356 372 388 0
-306 -356 -372 388 0
-307 356 372 -388 0
-307 356 -372 388 0
-307 -356 372 388 0
-307 -356 -372 -388 0
-308 356 372 388 0
-308 356 -372 388 0
-308 -356 372 388 0
-308 -356 -372 -388 0
-309 356 372 388 0
-309 356 -372 -388 0
-309 -356 372 -388 0
-309 -356 -372 -388 0
-310 356 372 388 0
-310 356 -372 -388 0
-310 -356 372 -388 0
-310 -356 -372 388 0
-311 -357 0
-312 357 0
-313 357 0
-314 -357 0
-315 357 0
-316 -357 0
-317 357 0
-318 -357 0
-319 -357 69 0
-319 357 -69 0
-320 -357 -69 0
-320 357 69 0
-321 -357 143 0
-321 357 -143 0
-322 -357 -143 0
-322 357 143 0
-323 -357 221 0
-323 357 -221 0
-324 -357 -221 0
-324 357 221 0
-325 -357 303 0
-325 357 -303 0
-326 -357 -303 0
-326 357 303 0
-327 -373 0
-328 373 0
-329 373 0
-330 -373 0
-331 373 0
-332 -373 0
-333 373 0
-334 -373 0
-335 -373 69 0
-335 373 -69 0
-336 -373 -69 0
-336 373 69 0
-337 -373 143 0
-337 373 -143 0
-338 -373 -143 0
-338 373 143 0
-339 -373 221 0
-339 373 -221 0
-340 -373 -221 0
-340 373 221 0
-341 -373 303 0
-341 373 -303 0
-342 -373 -303 0
-342 373 303 0
-305 357 373 -389 0
-305 357 -373 -389 0
-305 -357 373 -389 0
-305 -357 -373 389 0
-306 357 373 -389 0
-306 357 -373 389 0
-306 -357 373 389 0
-306 -357 -373 389 0
-307 357 373 -389 0
-307 357 -373 389 0
-307 -357 373 389 0
-307 -357 -373 -389 0
-308 357 373 389 0
-308 357 -373 389 0
-308 -357 373 389 0
-308 -357 -373 -389 0
-309 357 373 389 0
-309 357 -373 -389 0
-309 -357 373 -389 0
-309 -357 -373 -389 0
-310 357 373 389 0
-310 357 -373 -389 0
-310 -357 373 -389 0
-310 -357 -373 389 0
-311 358 0
-312 -358 0
-313 358 0
-314 -358 0
-315 358 0
-316 -358 0
-317 358 0
-318 -358 0
-319 -358 70 0
-319 358 -70 0
-320 -358 -70 0
-320 358 70 0
-321 -358 144 0
-321 358 -144 0
-322 -358 -144 0
-322 358 144 0
-323 -358 222 0
-323 358 -222 0
-324 -358 -222 0
-324 358 222 0
-325 -358 304 0
-325 358 -304 0
-326 -358 -304 0
-326 358 304 0
-327 374 0
-328 -374 0
-329 374 0
-330 -374 0
-331 374 0
-332 -374 0
-333 374 0
-334 -374 0
-335 -374 70 0
-335 374 -70 0
-336 -374 -70 0
-336 374 70 0
-337 -374 144 0
-337 374 -144 0
-338 -374 -144 0
-338 374 144 0
-339 -374 222 0
-339 374 -222 0
-340 -374 -222 0
-340 374 222 0
-341 -374 304 0
-341 374 -304 0
-342 -374 -304 0
-342 374 304 0
-305 358 374 -390 0
-305 358 -374 -390 0
-305 -358 374 -390 0
-305 -358 -374 390 0
-306 358 374 -390 0
-306 358 -374 390 0
-306 -358 374 390 0
-306 -358 -374 390 0
-307 358 374 -390 0
-307 358 -374 390 0
-307 -358 374 390 0
-307 -358 -374 -390 0
-308 358 374 390 0
-308 358 -374 390 0
-308 -358 374 390 0
-308 -358 -374 -390 0
-309 358 374 390 0
-309 358 -374 -390 0
-309 -358 374 -390 0
-309 -358 -374 -390 0
-310 358 374 390 0
-310 358 -374 -390 0
-310 -358 374 -390 0
-310 -358 -374 390 0
391 392 393 394 395 396 0
-391 -392 0
-391 -393 0
-391 -394 0
-391 -395 0
-391 -396 0
-392 -393 0
-392 -394 0
-392 -395 0
-392 -396 0
-393 -394 0
-393 -395 0
-393 -396 0
-394 -395 0
-394 -396 0
-395 -396 0
397 398 399 400 401 402 403 404 405 406 407 408 409 410 411 412 413 414 0
-397 -398 0
-397 -399 0
-397 -400 0
-397 -401 0
-397 -402 0
-397 -403 0
-397 -404 0
-397 -405 0
-397 -406 0
-397 -407 0
-397 -408 0
-397 -409 0
-397 -410 0
-397 -411 0
-397 -412 0
-397 -413 0
-397 -414 0
-398 -399 0
-398 -400 0
-398 -401 0
-398 -402 0
-398 -403 0
-398 -404 0
-398 -405 0
-398 -406 0
-398 -407 0
-398 -408 0
-398 -409 0
-398 -410 0
-398 -411 0
-398 -412 0
-398 -413 0
-398 -414 0
-399 -400 0
-399 -401 0
-399 -402 0
-399 -403 0
-399 -404 0
-399 -405 0
-399 -406 0
-399 -407 0
-399 -408 0
-399 -409 0
-399 -410 0
-399 -411 0
-399 -412 0
-399 -413 0
-399 -414 0
-400 -401 0
-400 -402 0
-400 -403 0
-400 -404 0
-400 -405 0
-400 -406 0
-400 -407 0
-400 -408 0
-400 -409 0
-400 -410 0
-400 -411 0
-400 -412 0
-400 -413 0
-400 -414 0
-401 -402 0
-401 -403 0
-401 -404 0
-401 -405 0
-401 -406 0
-401 -407 0
-401 -408 0
-401 -409 0
-401 -410 0
-401 -411 0
-401 -412 0
-401 -413 0
-401 -414 0
-402 -403 0
-402 -404 0
-402 -405 0
-402 -406 0
-402 -407 0
-402 -408 0
-402 -409 0
-402 -410 0
-402 -411 0
-402 -412 0
-402 -413 0
-402 -414 0
-403 -404 0
-403 -405 0
-403 -406 0
-403 -407 0
-403 -408 0
-403 -409 0
-403 -410 0
-403 -411 0
-403 -412 0
-403 -413 0
-403 -414 0
-404 -405 0
-404 -406 0
-404 -407 0
-404 -408 0
-404 -409 0
-404 -410 0
-404 -411 0
-404 -412 0
-404 -413 0
-404 -414 0
-405 -406 0
-405 -407 0
-405 -408 0
-405 -409 0
-405 -410 0
-405 -411 0
-405 -412 0
-405 -413 0
-405 -414 0
-406 -407 0
-406 -408 0
-406 -409 0
-406 -410 0
-406 -411 0
-406 -412 0
-406 -413 0
-406 -414 0
-407 -408 0
-407 -409 0
-407 -410 0
-407 -411 0
-407 -412 0
-407 -413 0
-407 -414 0
-408 -409 0
-408 -410 0
-408 -411 0
-408 -412 0
-408 -413 0
-408 -414 0
-409 -410 0
-409 -411 0
-409 -412 0
-409 -413 0
-409 -414 0
-410 -411 0
-410 -412 0
-410 -413 0
-410 -414 0
-411 -412 0
-411 -413 0
-411 -414 0
-412 -413 0
-412 -414 0
-413 -414 0
415 416 417 418 419 420 421 422 423 424 425 426 427 428 429 430 431 432 0
-415 -416 0
-415 -417 0
-415 -418 0
-415 -419 0
-415 -420 0
-415 -421 0
-415 -422 0
-415 -423 0
-415 -424 0
-415 -425 0
-415 -426 0
-415 -427 0
-415 -428 0
-415 -429 0
-415 -430 0
-415 -431 0
-415 -432 0
-416 -417 0
-416 -418 0
-416 -419 0
-416 -420 0
-416 -421 0
-416 -422 0
-416 -423 0
-416 -424 0
-416 -425 0
-416 -426 0
-416 -427 0
-416 -428 0
-416 -429 0
-416 -430 0
-416 -431 0
-416 -432 0
-417 -418 0
-417 -419 0
-417 -420 0
-417 -421 0
-417 -422 0
-417 -423 0
-417 -424 0
-417 -425 0
-417 -426 0
-417 -427 0
-417 -428 0
-417 -429 0
-417 -430 0
-417 -431 0
-417 -432 0
-418 -419 0
-418 -420 0
-418 -421 0
-418 -422 0
-418 -423 0
-418 -424 0
-418 -425 0
-418 -426 0
-418 -427 0
-418 -428 0
-418 -429 0
-418 -430 0
-418 -431 0
-418 -432 0
-419 -420 0
-419 -421 0
-419 -422 0
-419 -423 0
-419 -424 0
-419 -425 0
-419 -426 0
-419 -427 0
-419 -428 0
-419 -429 0
-419 -430 0
-419 -431 0
-419 -432 0
-420 -421 0
-420 -422 0
-420 -423 0
-420 -424 0
-420 -425 0
-420 -426 0
-420 -427 0
-420 -428 0
-420 -429 0
-420 -430 0
-420 -431 0
-420 -432 0
-421 -422 0
-421 -423 0
-421 -424 0
-421 -425 0
-421 -426 0
-421 -427 0
-421 -428 0
-421 -429 0
-421 -430 0
-421 -431 0
-421 -432 0
-422 -423 0
-422 -424 0
-422 -425 0
-422 -426 0
-422 -427 0
-422 -428 0
-422 -429 0
-422 -430 0
-422 -431 0
-422 -432 0
-423 -424 0
-423 -425 0
-423 -426 0
-423 -427 0
-423 -428 0
-423 -429 0
-423 -430 0
-423 -431 0
-423 -432 0
-424 -425 0
-424 -426 0
-424 -427 0
-424 -428 0
-424 -429 0
-424 -430 0
-424 -431 0
-424 -432 0
-425 -426 0
-425 -427 0
-425 -428 0
-425 -429 0
-425 -430 0
-425 -431 0
-425 -432 0
-426 -427 0
-426 -428 0
-426 -429 0
-426 -430 0
-426 -431 0
-426 -432 0
-427 -428 0
-427 -429 0
-427 -430 0
-427 -431 0
-427 -432 0
-428 -429 0
-428 -430 0
-428 -431 0
-428 -432 0
-429 -430 0
-429 -431 0
-429 -432 0
-430 -431 0
-430 -432 0
-431 -432 0
-398 -415 0
-399 -415 0
-399 -416 0
-400 -415 0
-400 -416 0
-400 -417 0
-401 -415 0
-401 -416 0
-401 -417 0
-401 -418 0
-402 -415 0
-402 -416 0
-402 -417 0
-402 -418 0
-402 -419 0
-403 -415 0
-403 -416 0
-403 -417 0
-403 -418 0
-403 -419 0
-403 -420 0
-404 -415 0
-404 -416 0
-404 -417 0
-404 -418 0
-404 -419 0
-404 -420 0
-404 -421 0
-405 -415 0
-405 -416 0
-405 -417 0
-405 -418 0
-405 -419 0
-405 -420 0
-405 -421 0
-405 -422 0
-406 -415 0
-406 -416 0
-406 -417 0
-406 -418 0
-406 -419 0
-406 -420 0
-406 -421 0
-406 -422 0
-406 -423 0
-407 -415 0
-407 -416 0
-407 -417 0
-407 -418 0
-407 -419 0
-407 -420 0
-407 -421 0
-407 -422 0
-407 -423 0
-407 -424 0
-408 -415 0
-408 -416 0
-408 -417 0
-408 -418 0
-408 -419 0
-408 -420 0
-408 -421 0
-408 -422 0
-408 -423 0
-408 -424 0
-408 -425 0
-409 -415 0
-409 -416 0
-409 -417 0
-409 -418 0
-409 -419 0
-409 -420 0
-409 -421 0
-409 -422 0
-409 -423 0
-409 -424 0
-409 -425 0
-409 -426 0
-410 -415 0
-410 -416 0
-410 -417 0
-410 -418 0
-410 -419 0
-410 -420 0
-410 -421 0
-410 -422 0
-410 -423 0
-410 -424 0
-410 -425 0
-410 -426 0
-410 -427 0
-411 -415 0
-411 -416 0
-411 -417 0
-411 -418 0
-411 -419 0
-411 -420 0
-411 -421 0
-411 -422 0
-411 -423 0
-411 -424 0
-411 -425 0
-411 -426 0
-411 -427 0
-411 -428 0
-412 -415 0
-412 -416 0
-412 -417 0
-412 -418 0
-412 -419 0
-412 -420 0
-412 -421 0
-412 -422 0
-412 -423 0
-412 -424 0
-412 -425 0
-412 -426 0
-412 -427 0
-412 -428 0
-412 -429 0
-413 -415 0
-413 -416 0
-413 -417 0
-413 -418 0
-413 -419 0
-413 -420 0
-413 -421 0
-413 -422 0
-413 -423 0
-413 -424 0
-413 -425 0
-413 -426 0
-413 -427 0
-413 -428 0
-413 -429 0
-413 -430 0
-414 -415 0
-414 -416 0
-414 -417 0
-414 -418 0
-414 -419 0
-414 -420 0
-414 -421 0
-414 -422 0
-414 -423 0
-414 -424 0
-414 -425 0
-414 -426 0
-414 -427 0
-414 -428 0
-414 -429 0
-414 -430 0
-414 -431 0
-397 -433 0
-398 433 0
-399 -433 0
-400 433 0
-401 -433 0
-402 433 0
-403 -433 0
-404 433 0
-405 -433 55 0
-405 433 -55 0
-406 -433 -55 0
-406 433 55 0
-407 -433 129 0
-407 433 -129 0
-408 -433 -129 0
-408 433 129 0
-409 -433 207 0
-409 433 -207 0
-410 -433 -207 0
-410 433 207 0
-411 -433 289 0
-411 433 -289 0
-412 -433 -289 0
-412 433 289 0
-413 -433 375 0
-413 433 -375 0
-414 -433 -375 0
-414 433 375 0
-415 -449 0
-416 449 0
-417 -449 0
-418 449 0
-419 -449 0
-420 449 0
-421 -449 0
-422 449 0
-423 -449 55 0
-423 449 -55 0
-424 -449 -55 0
-424 449 55 0
-425 -449 129 0
-425 449 -129 0
-426 -449 -129 0
-426 449 129 0
-427 -449 207 0
-427 449 -207 0
-428 -449 -207 0
-428 449 207 0
-429 -449 289 0
-429 449 -289 0
-430 -449 -289 0
-430 449 289 0
-431 -449 375 0
-431 449 -375 0
-432 -449 -375 0
-432 449 375 0
-391 433 449 -465 0
-391 433 -449 -465 0
-391 -433 449 -465 0
-391 -433 -449 465 0
-392 433 449 -465 0
-392 433 -449 465 0
-392 -433 449 465 0
-392 -433 -449 465 0
-393 433 449 -465 0
-393 433 -449 465 0
-393 -433 449 465 0
-393 -433 -449 -465 0
-394 433 449 465 0
-394 433 -449 465 0
-394 -433 449 465 0
-394 -433 -449 -465 0
-395 433 449 465 0
-395 433 -449 -465 0
-395 -433 449 -465 0
-395 -433 -449 -465 0
-396 433 449 465 0
-396 433 -449 -465 0
-396 -433 449 -465 0
-396 -433 -449 465 0
-397 434 0
-398 -434 0
-399 -434 0
-400 434 0
-401 -434 0
-402 434 0
-403 -434 0
-404 434 0
-405 -434 56 0
-405 434 -56 0
-406 -434 -56 0
-406 434 56 0
-407 -434 130 0
-407 434 -130 0
-408 -434 -130 0
-408 434 130 0
-409 -434 208 0
-409 434 -208 0
-410 -434 -208 0
-410 434 208 0
-411 -434 290 0
-411 434 -290 0
-412 -434 -290 0
-412 434 290 0
-413 -434 376 0
-413 434 -376 0
-414 -434 -376 0
-414 434 376 0
-415 450 0
-416 -450 0
-417 -450 0
-418 450 0
-419 -450 0
-420 450 0
-421 -450 0
-422 450 0
-423 -450 56 0
-423 450 -56 0
-424 -450 -56 0
-424 450 56 0
-425 -450 130 0
-425 450 -130 0
-426 -450 -130 0
-426 450 130 0
-427 -450 208 0
-427 450 -208 0
-428 -450 -208 0
-428 450 208 0
-429 -450 290 0
-429 450 -290 0
-430 -450 -290 0
-430 450 290 0
-431 -450 376 0
-431 450 -376 0
-432 -450 -376 0
-432 450 376 0
-391 434 450 -466 0
-391 434 -450 -466 0
-391 -434 450 -466 0
-391 -434 -450 466 0
-392 434 450 -466 0
-392 434 -450 466 0
-392 -434 450 466 0
-392 -434 -450 466 0
-393 434 450 -466 0
-393 434 -450 466 0
-393 -434 450 466 0
-393 -434 -450 -466 0
-394 434 450 466 0
-394 434 -450 466 0
-394 -434 450 466 0
-394 -434 -450 -466 0
-395 434 450 466 0
-395 434 -450 -466 0
-395 -434 450 -466 0
-395 -434 -450 -466 0
-396 434 450 466 0
-396 434 -450 -466 0
-396 -434 450 -466 0
-396 -434 -450 466 0
-397 -435 0
-398 435 0
-399 435 0
-400 -435 0
-401 -435 0
-402 435 0
-403 -435 0
-404 435 0
-405 -435 57 0
-405 435 -57 0
-406 -435 -57 0
-406 435 57 0
-407 -435 131 0
-407 435 -131 0
-408 -435 -131 0
-408 435 131 0
-409 -435 209 0
-409 435 -209 0
-410 -435 -209 0
-410 435 209 0
-411 -435 291 0
-411 435 -291 0
-412 -435 -291 0
-412 435 291 0
-413 -435 377 0
-413 435 -377 0
-414 -435 -377 0
-414 435 377 0
-415 -451 0
-416 451 0
-417 451 0
-418 -451 0
-419 -451 0
-420 451 0
-421 -451 0
-422 451 0
-423 -451 57 0
-423 451 -57 0
-424 -451 -57 0
-424 451 57 0
-425 -451 131 0
-425 451 -131 0
-426 -451 -131 0
-426 451 131 0
-427 -451 209 0
-427 451 -209 0
-428 -451 -209 0
-428 451 209 0
-429 -451 291 0
-429 451 -291 0
-430 -451 -291 0
-430 451 291 0
-431 -451 377 0
-431 451 -377 0
-432 -451 -377 0
-432 451 377 0
-391 435 451 -467 0
-391 435 -451 -467 0
-391 -435 451 -467 0
-391 -435 -451 467 0
-392 435 451 -467 0
-392 435 -451 467 0
-392 -435 451 467 0
-392 -435 -451 467 0
-393 435 451 -467 0
-393 435 -451 467 0
-393 -435 451 467 0
-393 -435 -451 -467 0
-394 435 451 467 0
-394 435 -451 467 0
-394 -435 451 467 0
-394 -435 -451 -467 0
-395 435 451 467 0
-395 435 -451 -467 0
-395 -435 451 -467 0
-395 -435 -451 -467 0
-396 435 451 467 0
-396 435 -451 -467 0
-396 -435 451 -467 0
-396 -435 -451 467 0
-397 436 0
-398 -436 0
-399 436 0
-400 -436 0
-401 -436 0
-402 436 0
-403 -436 0
-404 436 0
-405 -436 58 0
-405 436 -58 0
-406 -436 -58 0
-406 436 58 0
-407 -436 132 0
-407 436 -132 0
-408 -436 -132 0
-408 436 132 0
-409 -436 210 0
-409 436 -210 0
-410 -436 -210 0
-410 436 210 0
-411 -436 292 0
-411 436 -292 0
-412 -436 -292 0
-412 436 292 0
-413 -436 378 0
-413 436 -378 0
-414 -436 -378 0
-414 436 378 0
-415 452 0
-416 -452 0
-417 452 0
-418 -452 0
-419 -452 0
-420 452 0
-421 -452 0
-422 452 0
-423 -452 58 0
-423 452 -58 0
-424 -452 -58 0
-424 452 58 0
-425 -452 132 0
-425 452 -132 0
-426 -452 -132 0
-426 452 132 0
-427 -452 210 0
-427 452 -210 0
-428 -452 -210 0
-428 452 210 0
-429 -452 292 0
-429 452 -292 0
-430 -452 -292 0
-430 452 292 0
-431 -452 378 0
-431 452 -378 0
-432 -452 -378 0
-432 452 378 0
-391 436 452 -468 0
-391 436 -452 -468 0
-391 -436 452 -468 0
-391 -436 -452 468 0
-392 436 452 -468 0
-392 436 -452 468 0
-392 -436 452 468 0
-392 -436 -452 468 0
-393 436 452 -468 0
-393 436 -452 468 0
-393 -436 452 468 0
-393 -436 -452 -468 0
-394 436 452 468 0
-394 436 -452 468 0
-394 -436 452 468 0
-394 -436 -452 -468 0
-395 436 452 468 0
-395 436 -452 -468 0
-395 -436 452 -468 0
-395 -436 -452 -468 0
-396 436 452 468 0
-396 436 -452 -468 0
-396 -436 452 -468 0
-396 -436 -452 468 0
-397 -437 0
-398 437 0
-399 -437 0
-400 437 0
-401 437 0
-402 -437 0
-403 -437 0
-404 437 0
-405 -437 59 0
-405 437 -59 0
-406 -437 -59 0
-406 437 59 0
-407 -437 133 0
-407 437 -133 0
-408 -437 -133 0
-408 437 133 0
-409 -437 211 0
-409 437 -211 0
-410 -437 -211 0
-410 437 211 0
-411 -437 293 0
-411 437 -293 0
-412 -437 -293 0
-412 437 293 0
-413 -437 379 0
-413 437 -379 0
-414 -437 -379 0
-414 437 379 0
-415 -453 0
-416 453 0
-417 -453 0
-418 453 0
-419 453 0
-420 -453 0
-421 -453 0
-422 453 0
-423 -453 59 0
-423 453 -59 0
-424 -453 -59 0
-424 453 59 0
-425 -453 133 0
-425 453 -133 0
-426 -453 -133 0
-426 453 133 0
-427 -453 211 0
-427 453 -211 0
-428 -453 -211 0
-428 453 211 0
-429 -453 293 0
-429 453 -293 0
-430 -453 -293 0
-430 453 293 0
-431 -453 379 0
-431 453 -379 0
-432 -453 -379 0
-432 453 379 0
-391 437 453 -469 0
-391 437 -453 -469 0
-391 -437 453 -469 0
-391 -437 -453 469 0
-392 437 453 -469 0
-392 437 -453 469 0
-392 -437 453 469 0
-392 -437 -453 469 0
-393 437 453 -469 0
-393 437 -453 469 0
-393 -437 453 469 0
-393 -437 -453 -469 0
-394 437 453 469 0
-394 437 -453 469 0
-394 -437 453 469 0
-394 -437 -453 -469 0
-395 437 453 469 0
-395 437 -453 -469 0
-395 -437 453 -469 0
-395 -437 -453 -469 0
-396 437 453 469 0
-396 437 -453 -469 0
-396 -437 453 -469 0
-396 -437 -453 469 0
-397 438 0
-398 -438 0
-399 -438 0
-400 438 0
-401 438 0
-402 -438 0
-403 -438 0
-404 438 0
-405 -438 60 0
-405 438 -60 0
-406 -438 -60 0
-406 438 60 0
-407 -438 134 0
-407 438 -134 0
-408 -438 -134 0
-408 438 134 0
-409 -438 212 0
-409 438 -212 0
-410 -438 -212 0
-410 438 212 0
-411 -438 294 0
-411 438 -294 0
-412 -438 -294 0
-412 438 294 0
-413 -438 380 0
-413 438 -380 0
-414 -438 -380 0
-414 438 380 0
-415 454 0
-416 -454 0
-417 -454 0
-418 454 0
-419 454 0
-420 -454 0
-421 -454 0
-422 454 0
-423 -454 60 0
-423 454 -60 0
-424 -454 -60 0
-424 454 60 0
-425 -454 134 0
-425 454 -134 0
-426 -454 -134 0
-426 454 134 0
-427 -454 212 0
-427 454 -212 0
-428 -454 -212 0
-428 454 212 0
-429 -454 294 0
-429 454 -294 0
-430 -454 -294 0
-430 454 294 0
-431 -454 380 0
-431 454 -380 0
-432 -454 -380 0
-432 454 380 0
-391 438 454 -470 0
-391 438 -454 -470 0
-391 -438 454 -470 0
-391 -438 -454 470 0
-392 438 454 -470 0
-392 438 -454 470 0
-392 -438 454 470 0
-392 -438 -454 470 0
-393 438 454 -470 0
-393 438 -454 470 0
-393 -438 454 470 0
-393 -438 -454 -470 0
-394 438 454 470 0
-394 438 -454 470 0
-394 -438 454 470 0
-394 -438 -454 -470 0
-395 438 454 470 0
-395 438 -454 -470 0
-395 -438 454 -470 0
-395 -438 -454 -470 0
-396 438 454 470 0
-396 438 -454 -470 0
-396 -438 454 -470 0
-396 -438 -454 470 0
-397 -439 0
-398 439 0
-399 439 0
-400 -439 0
-401 439 0
-402 -439 0
-403 -439 0
-404 439 0
-405 -439 61 0
-405 439 -61 0
-406 -439 -61 0
-406 439 61 0
-407 -439 135 0
-407 439 -135 0
-408 -439 -135 0
-408 439 135 0
-409 -439 213 0
-409 439 -213 0
-410 -439 -213 0
-410 439 213 0
-411 -439 295 0
-411 439 -295 0
-412 -439 -295 0
-412 439 295 0
-413 -439 381 0
-413 439 -381 0
-414 -439 -381 0
-414 439 381 0
-415 -455 0
-416 455 0
-417 455 0
-418 -455 0
-419 455 0
-420 -455 0
-421 -455 0
-422 455 0
-423 -455 61 0
-423 455 -61 0
-424 -455 -61 0
-424 455 61 0
-425 -455 135 0
-425 455 -135 0
-426 -455 -135 0
-426 455 135 0
-427 -455 213 0
-427 455 -213 0
-428 -455 -213 0
-428 455 213 0
-429 -455 295 0
-429 455 -295 0
-430 -455 -295 0
-430 455 295 0
-431 -455 381 0
-431 455 -381 0
-432 -455 -381 0
-432 455 381 0
-391 439 455 -471 0
-391 439 -455 -471 0
-391 -439 455 -471 0
-391 -439 -455 471 0
-392 439 455 -471 0
-392 439 -455 471 0
-392 -439 455 471 0
-392 -439 -455 471 0
-393 439 455 -471 0
-393 439 -455 471 0
-393 -439 455 471 0
-393 -439 -455 -471 0
-394 439 455 471 0
-394 439 -455 471 0
-394 -439 455 471 0
-394 -439 -455 -471 0
-395 439 455 471 0
-395 439 -455 -471 0
-395 -439 455 -471 0
-395 -439 -455 -471 0
-396 439 455 471 0
-396 439 -455 -471 0
-396 -439 455 -471 0
-396 -439 -455 471 0
-397 440 0
-398 -440 0
-399 440 0
-400 -440 0
-401 440 0
-402 -440 0
-403 -440 0
-404 440 0
-405 -440 62 0
-405 440 -62 0
-406 -440 -62 0
-406 440 62 0
-407 -440 136 0
-407 440 -136 0
-408 -440 -136 0
-408 440 136 0
-409 -440 214 0
-409 440 -214 0
-410 -440 -214 0
-410 440 214 0
-411 -440 296 0
-411 440 -296 0
-412 -440 -296 0
-412 440 296 0
-413 -440 382 0
-413 440 -382 0
-414 -440 -382 0
-414 440 382 0
-415 456 0
-416 -456 0
-417 456 0
-418 -456 0
-419 456 0
-420 -456 0
-421 -456 0
-422 456 0
-423 -456 62 0
-423 456 -62 0
-424 -456 -62 0
-424 456 62 0
-425 -456 136 0
-425 456 -136 0
-426 -456 -136 0
-426 456 136 0
-427 -456 214 0
-427 456 -214 0
-428 -456 -214 0
-428 456 214 0
-429 -456 296 0
-429 456 -296 0
-430 -456 -296 0
-430 456 296 0
-431 -456 382 0
-431 456 -382 0
-432 -456 -382 0
-432 456 382 0
-391 440 456 -472 0
-391 440 -456 -472 0
-391 -440 456 -472 0
-391 -440 -456 472 0
-392 440 456 -472 0
-392 440 -456 472 0
-392 -440 456 472 0
-392 -440 -456 472 0
-393 440 456 -472 0
-393 440 -456 472 0
-393 -440 456 472 0
-393 -440 -456 -472 0
-394 440 456 472 0
-394 440 -456 472 0
-394 -440 456 472 0
-394 -440 -456 -472 0
-395 440 456 472 0
-395 440 -456 -472 0
-395 -440 456 -472 0
-395 -440 -456 -472 0
-396 440 456 472 0
-396 440 -456 -472 0
-396 -440 456 -472 0
-396 -440 -456 472 0
-397 -441 0
-398 441 0
-399 -441 0
-400 441 0
-401 -441 0
-402 441 0
-403 441 0
-404 -441 0
-405 -441 63 0
-405 441 -63 0
-406 -441 -63 0
-406 441 63 0
-407 -441 137 0
-407 441 -137 0
-408 -441 -137 0
-408 441 137 0
-409 -441 215 0
-409 441 -215 0
-410 -441 -215 0
-410 441 215 0
-411 -441 297 0
-411 441 -297 0
-412 -441 -297 0
-412 441 297 0
-413 -441 383 0
-413 441 -383 0
-414 -441 -383 0
-414 441 383 0
-415 -457 0
-416 457 0
-417 -457 0
-418 457 0
-419 -457 0
-420 457 0
-421 457 0
-422 -457 0
-423 -457 63 0
-423 457 -63 0
-424 -457 -63 0
-424 457 63 0
-425 -457 137 0
-425 457 -137 0
-426 -457 -137 0
-426 457 137 0
-427 -457 215 0
-427 457 -215 0
-428 -457 -215 0
-428 457 215 0
-429 -457 297 0
-429 457 -297 0
-430 -457 -297 0
-430 457 297 0
-431 -457 383 0
-431 457 -383 0
-432 -457 -383 0
-432 457 383 0
-391 441 457 -473 0
-391 441 -457 -473 0
-391 -441 457 -473 0
-391 -441 -457 473 0
-392 441 457 -473 0
-392 441 -457 473 0
-392 -441 457 473 0
-392 -441 -457 473 0
-393 441 457 -473 0
-393 441 -457 473 0
-393 -441 457 473 0
-393 -441 -457 -473 0
-394 441 457 473 0
-394 441 -457 473 0
-394 -441 457 473 0
-394 -441 -457 -473 0
-395 441 457 473 0
-395 441 -457 -473 0
-395 -441 457 -473 0
-395 -441 -457 -473 0
-396 441 457 473 0
-396 441 -457 -473 0
-396 -441 457 -473 0
-396 -441 -457 473 0
-397 442 0
-398 -442 0
-399 -442 0
-400 442 0
-401 -442 0
-402 442 0
-403 442 0
-404 -442 0
-405 -442 64 0
-405 442 -64 0
-406 -442 -64 0
-406 442 64 0
-407 -442 138 0
-407 442 -138 0
-408 -442 -138 0
-408 442 138 0
-409 -442 216 0
-409 442 -216 0
-410 -442 -216 0
-410 442 216 0
-411 -442 298 0
-411 442 -298 0
-412 -442 -298 0
-412 442 298 0
-413 -442 384 0
-413 442 -384 0
-414 -442 -384 0
-414 442 384 0
-415 458 0
-416 -458 0
-417 -458 0
-418 458 0
-419 -458 0
-420 458 0
-421 458 0
-422 -458 0
-423 -458 64 0
-423 458 -64 0
-424 -458 -64 0
-424 458 64 0
-425 -458 138 0
-425 458 -138 0
-426 -458 -138 0
-426 458 138 0
-427 -458 216 0
-427 458 -216 0
-428 -458 -216 0
-428 458 216 0
-429 -458 298 0
-429 458 -298 0
-430 -458 -298 0
-430 458 298 0
-431 -458 384 0
-431 458 -384 0
-432 -458 -384 0
-432 458 384 0
-391 442 458 -474 0
-391 442 -458 -474 0
-391 -442 458 -474 0
-391 -442 -458 474 0
-392 442 458 -474 0
-392 442 -458 474 0
-392 -442 458 474 0
-392 -442 -458 474 0
-393 442 458 -474 0
-393 442 -458 474 0
-393 -442 458 474 0
-393 -442 -458 -474 0
-394 442 458 474 0
-394 442 -458 474 0
-394 -442 458 474 0
-394 -442 -458 -474 0
-395 442 458 474 0
-395 442 -458 -474 0
-395 -442 458 -474 0
-395 -442 -458 -474 0
-396 442 458 474 0
-396 442 -458 -474 0
-396 -442 458 -474 0
-396 -442 -458 474 0
-397 -443 0
-398 443 0
-399 443 0
-400 -443 0
-401 -443 0
-402 443 0
-403 443 0
-404 -443 0
-405 -443 65 0
-405 443 -65 0
-406 -443 -65 0
-406 443 65 0
-407 -443 139 0
-407 443 -139 0
-408 -443 -139 0
-408 443 139 0
-409 -443 217 0
-409 443 -217 0
-410 -443 -217 0
-410 443 217 0
-411 -443 299 0
-411 443 -299 0
-412 -443 -299 0
-412 443 299 0
-413 -443 385 0
-413 443 -385 0
-414 -443 -385 0
-414 443 385 0
-415 -459 0
-416 459 0
-417 459 0
-418 -459 0
-419 -459 0
-420 459 0
-421 459 0
-422 -459 0
-423 -459 65 0
-423 459 -65 0
-424 -459 -65 0
-424 459 65 0
-425 -459 139 0
-425 459 -139 0
-426 -459 -139 0
-426 459 139 0
-427 -459 217 0
-427 459 -217 0
-428 -459 -217 0
-428 459 217 0
-429 -459 299 0
-429 459 -299 0
-430 -459 -299 0
-430 459 299 0
-431 -459 385 0
-431 459 -385 0
-432 -459 -385 0
-432 459 385 0
-391 443 459 -475 0
-391 443 -459 -475 0
-391 -443 459 -475 0
-391 -443 -459 475 0
-392 443 459 -475 0
-392 443 -459 475 0
-392 -443 459 475 0
-392 -443 -459 475 0
-393 443 459 -475 0
-393 443 -459 475 0
-393 -443 459 475 0
-393 -443 -459 -475 0
-394 443 459 475 0
-394 443 -459 475 0
-394 -443 459 475 0
-394 -443 -459 -475 0
-395 443 459 475 0
-395 443 -459 -475 0
-395 -443 459 -475 0
-395 -443 -459 -475 0
-396 443 459 475 0
-396 443 -459 -475 0
-396 -443 459 -475 0
-396 -443 -459 475 0
-397 444 0
-398 -444 0
-399 444 0
-400 -444 0
-401 -444 0
-402 444 0
-403 444 0
-404 -444 0
-405 -444 66 0
-405 444 -66 0
-406 -444 -66 0
-406 444 66 0
-407 -444 140 0
-407 444 -140 0
-408 -444 -140 0
-408 444 140 0
-409 -444 218 0
-409 444 -218 0
-410 -444 -218 0
-410 444 218 0
-411 -444 300 0
-411 444 -300 0
-412 -444 -300 0
-412 444 300 0
-413 -444 386 0
-413 444 -386 0
-414 -444 -386 0
-414 444 386 0
-415 460 0
-416 -460 0
-417 460 0
-418 -460 0
-419 -460 0
-420 460 0
-421 460 0
-422 -460 0
-423 -460 66 0
-423 460 -66 0
-424 -460 -66 0
-424 460 66 0
-425 -460 140 0
-425 460 -140 0
-426 -460 -140 0
-426 460 140 0
-427 -460 218 0
-427 460 -218 0
-428 -460 -218 0
-428 460 218 0
-429 -460 300 0
-429 460 -300 0
-430 -460 -300 0
-430 460 300 0
-431 -460 386 0
-431 460 -386 0
-432 -460 -386 0
-432 460 386 0
-391 444 460 -476 0
-391 444 -460 -476 0
-391 -444 460 -476 0
-391 -444 -460 476 0
-392 444 460 -476 0
-392 444 -460 476 0
-392 -444 460 476 0
-392 -444 -460 476 0
-393 444 460 -476 0
-393 444 -460 476 0
-393 -444 460 476 0
-393 -444 -460 -476 0
-394 444 460 476 0
-394 444 -460 476 0
-394 -444 460 476 0
-394 -444 -460 -476 0
-395 444 460 476 0
-395 444 -460 -476 0
-395 -444 460 -476 0
-395 -444 -460 -476 0
-396 444 460 476 0
-396 444 -460 -476 0
-396 -444 460 -476 0
-396 -444 -460 476 0
-397 -445 0
-398 445 0
-399 -445 0
-400 445 0
-401 445 0
-402 -445 0
-403 445 0
-404 -445 0
-405 -445 67 0
-405 445 -67 0
-406 -445 -67 0
-406 445 67 0
-407 -445 141 0
-407 445 -141 0
-408 -445 -141 0
-408 445 141 0
-409 -445 219 0
-409 445 -219 0
-410 -445 -219 0
-410 445 219 0
-411 -445 301 0
-411 445 -301 0
-412 -445 -301 0
-412 445 301 0
-413 -445 387 0
-413 445 -387 0
-414 -445 -387 0
-414 445 387 0
-415 -461 0
-416 461 0
-417 -461 0
-418 461 0
-419 461 0
-420 -461 0
-421 461 0
-422 -461 0
-423 -461 67 0
-423 461 -67 0
-424 -461 -67 0
-424 461 67 0
-425 -461 141 0
-425 461 -141 0
-426 -461 -141 0
-426 461 141 0
-427 -461 219 0
-427 461 -219 0
-428 -461 -219 0
-428 461 219 0
-429 -461 301 0
-429 461 -301 0
-430 -461 -301 0
-430 461 301 0
-431 -461 387 0
-431 461 -387 0
-432 -461 -387 0
-432 461 387 0
-391 445 461 -477 0
-391 445 -461 -477 0
-391 -445 461 -477 0
-391 -445 -461 477 0
-392 445 461 -477 0
-392 445 -461 477 0
-392 -445 461 477 0
-392 -445 -461 477 0
-393 445 461 -477 0
-393 445 -461 477 0
-393 -445 461 477 0
-393 -445 -461 -477 0
-394 445 461 477 0
-394 445 -461 477 0
-394 -445 461 477 0
-394 -445 -461 -477 0
-395 445 461 477 0
-395 445 -461 -477 0
-395 -445 461 -477 0
-395 -445 -461 -477 0
-396 445 461 477 0
-396 445 -461 -477 0
-396 -445 461 -477 0
-396 -445 -461 477 0
-397 446 0
-398 -446 0
-399 -446 0
-400 446 0
-401 446 0
-402 -446 0
-403 446 0
-404 -446 0
-405 -446 68 0
-405 446 -68 0
-406 -446 -68 0
-406 446 68 0
-407 -446 142 0
-407 446 -142 0
-408 -446 -142 0
-408 446 142 0
-409 -446 220 0
-409 446 -220 0
-410 -446 -220 0
-410 446 220 0
-411 -446 302 0
-411 446 -302 0
-412 -446 -302 0
-412 446 302 0
-413 -446 388 0
-413 446 -388 0
-414 -446 -388 0
-414 446 388 0
-415 462 0
-416 -462 0
-417 -462 0
-418 462 0
-419 462 0
-420 -462 0
-421 462 0
-422 -462 0
-423 -462 68 0
-423 462 -68 0
-424 -462 -68 0
-424 462 68 0
-425 -462 142 0
-425 462 -142 0
-426 -462 -142 0
-426 462 142 0
-427 -462 220 0
-427 462 -220 0
-428 -462 -220 0
-428 462 220 0
-429 -462 302 0
-429 462 -302 0
-430 -462 -302 0
-430 462 302 0
-431 -462 388 0
-431 462 -388 0
-432 -462 -388 0
-432 462 388 0
-391 446 462 -478 0
-391 446 -462 -478 0
-391 -446 462 -478 0
-391 -446 -462 478 0
-392 446 462 -478 0
-392 446 -462 478 0
-392 -446 462 478 0
-392 -446 -462 478 0
-393 446 462 -478 0
-393 446 -462 478 0
-393 -446 462 478 0
-393 -446 -462 -478 0
-394 446 462 478 0
-394 446 -462 478 0
-394 -446 462 478 0
-394 -446 -462 -478 0
-395 446 462 478 0
-395 446 -462 -478 0
-395 -446 462 -478 0
-395 -446 -462 -478 0
-396 446 462 478 0
-396 446 -462 -478 0
-396 -446 462 -478 0
-396 -446 -462 478 0
-397 -447 0
-398 447 0
-399 447 0
-400 -447 0
-401 447 0
-402 -447 0
-403 447 0
-404 -447 0
-405 -447 69 0
-405 447 -69 0
-406 -447 -69 0
-406 447 69 0
-407 -447 143 0
-407 447 -143 0
-408 -447 -143 0
-408 447 143 0
-409 -447 221 0
-409 447 -221 0
-410 -447 -221 0
-410 447 221 0
-411 -447 303 0
-411 447 -303 0
-412 -447 -303 0
-412 447 303 0
-413 -447 389 0
-413 447 -389 0
-414 -447 -389 0
-414 447 389 0
-415 -463 0
-416 463 0
-417 463 0
-418 -463 0
-419 463 0
-420 -463 0
-421 463 0
-422 -463 0
-423 -463 69 0
-423 463 -69 0
-424 -463 -69 0
-424 463 69 0
-425 -463 143 0
-425 463 -143 0
-426 -463 -143 0
-426 463 143 0
-427 -463 221 0
-427 463 -221 0
-428 -463 -221 0
-428 463 221 0
-429 -463 303 0
-429 463 -303 0
-430 -463 -303 0
-430 463 303 0
-431 -463 389 0
-431 463 -389 0
-432 -463 -389 0
-432 463 389 0
-391 447 463 -479 0
-391 447 -463 -479 0
-391 -447 463 -479 0
-391 -447 -463 479 0
-392 447 463 -479 0
-392 447 -463 479 0
-392 -447 463 479 0
-392 -447 -463 479 0
-393 447 463 -479 0
-393 447 -463 479 0
-393 -447 463 479 0
-393 -447 -463 -479 0
-394 447 463 479 0
-394 447 -463 479 0
-394 -447 463 479 0
-394 -447 -463 -479 0
-395 447 463 479 0
-395 447 -463 -479 0
-395 -447 463 -479 0
-395 -447 -463 -479 0
-396 447 463 479 0
-396 447 -463 -479 0
-396 -447 463 -479 0
-396 -447 -463 479 0
-397 448 0
-398 -448 0
-399 448 0
-400 -448 0
-401 448 0
-402 -448 0
-403 448 0
-404 -448 0
-405 -448 70 0
-405 448 -70 0
-406 -448 -70 0
-406 448 70 0
-407 -448 144 0
-407 448 -144 0
-408 -448 -144 0
-408 448 144 0
-409 -448 222 0
-409 448 -222 0
-410 -448 -222 0
-410 448 222 0
-411 -448 304 0
-411 448 -304 0
-412 -448 -304 0
-412 448 304 0
-413 -448 390 0
-413 448 -390 0
-414 -448 -390 0
-414 448 390 0
-415 464 0
-416 -464 0
-417 464 0
-418 -464 0
-419 464 0
-420 -464 0
-421 464 0
-422 -464 0
-423 -464 70 0
-423 464 -70 0
-424 -464 -70 0
-424 464 70 0
-425 -464 144 0
-425 464 -144 0
-426 -464 -144 0
-426 464 144 0
-427 -464 222 0
-427 464 -222 0
-428 -464 -222 0
-428 464 222 0
-429 -464 304 0
-429 464 -304 0
-430 -464 -304 0
-430 464 304 0
-431 -464 390 0
-431 464 -390 0
-432 -464 -390 0
-432 464 390 0
-391 448 464 -480 0
-391 448 -464 -480 0
-391 -448 464 -480 0
-391 -448 -464 480 0
-392 448 464 -480 0
-392 448 -464 480 0
-392 -448 464 480 0
-392 -448 -464 480 0
-393 448 464 -480 0
-393 448 -464 480 0
-393 -448 464 480 0
-393 -448 -464 -480 0
-394 448 464 480 0
-394 448 -464 480 0
-394 -448 464 480 0
-394 -448 -464 -480 0
-395 448 464 480 0
-395 448 -464 -480 0
-395 -448 464 -480 0
-395 -448 -464 -480 0
-396 448 464 480 0
-396 448 -464 -480 0
-396 -448 464 -480 0
-396 -448 -464 480 0
481 482 483 484 485 486 0
-481 -482 0
-481 -483 0
-481 -484 0
-481 -485 0
-481 -486 0
-482 -483 0
-482 -484 0
-482 -485 0
-482 -486 0
-483 -484 0
-483 -485 0
-483 -486 0
-484 -485 0
-484 -486 0
-485 -486 0
487 488 489 490 491 492 493 494 495 496 497 498 499 500 501 502 503 504 505 506 0
-487 -488 0
-487 -489 0
-487 -490 0
-487 -491 0
-487 -492 0
-487 -493 0
-487 -494 0
-487 -495 0
-487 -496 0
-487 -497 0
-487 -498 0
-487 -499 0
-487 -500 0
-487 -501 0
-487 -502 0
-487 -503 0
-487 -504 0
-487 -505 0
-487 -506 0
-488 -489 0
-488 -490 0
-488 -491 0
-488 -492 0
-488 -493 0
-488 -494 0
-488 -495 0
-488 -496 0
-488 -497 0
-488 -498 0
-488 -499 0
-488 -500 0
-488 -501 0
-488 -502 0
-488 -503 0
-488 -504 0
-488 -505 0
-488 -506 0
-489 -490 0
-489 -491 0
-489 -492 0
-489 -493 0
-489 -494 0
-489 -495 0
-489 -496 0
-489 -497 0
-489 -498 0
-489 -499 0
-489 -500 0
-489 -501 0
-489 -502 0
-489 -503 0
-489 -504 0
-489 -505 0
-489 -506 0
-490 -491 0
-490 -492 0
-490 -493 0
-490 -494 0
-490 -495 0
-490 -496 0
-490 -497 0
-490 -498 0
-490 -499 0
-490 -500 0
-490 -501 0
-490 -502 0
-490 -503 0
-490 -504 0
-490 -505 0
-490 -506 0
-491 -492 0
-491 -493 0
-491 -494 0
-491 -495 0
-491 -496 0
-491 -497 0
-491 -498 0
-491 -499 0
-491 -500 0
-491 -501 0
-491 -502 0
-491 -503 0
-491 -504 0
-491 -505 0
-491 -506 0
-492 -493 0
-492 -494 0
-492 -495 0
-492 -496 0
-492 -497 0
-492 -498 0
-492 -499 0
-492 -500 0
-492 -501 0
-492 -502 0
-492 -503 0
-492 -504 0
-492 -505 0
-492 -506 0
-493 -494 0
-493 -495 0
-493 -496 0
-493 -497 0
-493 -498 0
-493 -499 0
-493 -500 0
-493 -501 0
-493 -502 0
-493 -503 0
-493 -504 0
-493 -505 0
-493 -506 0
-494 -495 0
-494 -496 0
-494 -497 0
-494 -498 0
-494 -499 0
-494 -500 0
-494 -501 0
-494 -502 0
-494 -503 0
-494 -504 0
-494 -505 0
-494 -506 0
-495 -496 0
-495 -497 0
-495 -498 0
-495 -499 0
-495 -500 0
-495 -501 0
-495 -502 0
-495 -503 0
-495 -504 0
-495 -505 0
-495 -506 0
-496 -497 0
-496 -498 0
-496 -499 0
-496 -500 0
-496 -501 0
-496 -502 0
-496 -503 0
-496 -504 0
-496 -505 0
-496 -506 0
-497 -498 0
-497 -499 0
-497 -500 0
-497 -501 0
-497 -502 0
-497 -503 0
-497 -504 0
-497 -505 0
-497 -506 0
-498 -499 0
-498 -500 0
-498 -501 0
-498 -502 0
-498 -503 0
-498 -504 0
-498 -505 0
-498 -506 0
-499 -500 0
-499 -501 0
-499 -502 0
-499 -503 0
-499 -504 0
-499 -505 0
-499 -506 0
-500 -501 0
-500 -502 0
-500 -503 0
-500 -504 0
-500 -505 0
-500 -506 0
-501 -502 0
-501 -503 0
-501 -504 0
-501 -505 0
-501 -506 0
-502 -503 0
-502 -504 0
-502 -505 0
-502 -506 0
-503 -504 0
-503 -505 0
-503 -506 0
-504 -505 0
-504 -506 0
-505 -506 0
507 508 509 510 511 512 513 514 515 516 517 518 519 520 521 522 523 524 525 526 0
-507 -508 0
-507 -509 0
-507 -510 0
-507 -511 0
-507 -512 0
-507 -513 0
-507 -514 0
-507 -515 0
-507 -516 0
-507 -517 0
-507 -518 0
-507 -519 0
-507 -520 0
-507 -521 0
-507 -522 0
-507 -523 0
-507 -524 0
-507 -525 0
-507 -526 0
-508 -509 0
-508 -510 0
-508 -511 0
-508 -512 0
-508 -513 0
-508 -514 0
-508 -515 0
-508 -516 0
-508 -517 0
-508 -518 0
-508 -519 0
-508 -520 0
-508 -521 0
-508 -522 0
-508 -523 0
-508 -524 0
-508 -525 0
-508 -526 0
-509 -510 0
-509 -511 0
-509 -512 0
-509 -513 0
-509 -514 0
-509 -515 0
-509 -516 0
-509 -517 0
-509 -518 0
-509 -519 0
-509 -520 0
-509 -521 0
-509 -522 0
-509 -523 0
-509 -524 0
-509 -525 0
-509 -526 0
-510 -511 0
-510 -512 0
-510 -513 0
-510 -514 0
-510 -515 0
-510 -516 0
-510 -517 0
-510 -518 0
-510 -519 0
-510 -520 0
-510 -521 0
-510 -522 0
-510 -523 0
-510 -524 0
-510 -525 0
-510 -526 0
-511 -512 0
-511 -513 0
-511 -514 0
-511 -515 0
-511 -516 0
-511 -517 0
-511 -518 0
-511 -519 0
-511 -520 0
-511 -521 0
-511 -522 0
-511 -523 0
-511 -524 0
-511 -525 0
-511 -526 0
-512 -513 0
-512 -514 0
-512 -515 0
-512 -516 0
-512 -517 0
-512 -518 0
-512 -519 0
-512 -520 0
-512 -521 0
-512 -522 0
-512 -523 0
-512 -524 0
-512 -525 0
-512 -526 0
-513 -514 0
-513 -515 0
-513 -516 0
-513 -517 0
-513 -518 0
-513 -519 0
-513 -520 0
-513 -521 0
-513 -522 0
-513 -523 0
-513 -524 0
-513 -525 0
-513 -526 0
-514 -515 0
-514 -516 0
-514 -517 0
-514 -518 0
-514 -519 0
-514 -520 0
-514 -521 0
-514 -522 0
-514 -523 0
-514 -524 0
-514 -525 0
-514 -526 0
-515 -516 0
-515 -517 0
-515 -518 0
-515 -519 0
-515 -520 0
-515 -521 0
-515 -522 0
-515 -523 0
-515 -524 0
-515 -525 0
-515 -526 0
-516 -517 0
-516 -518 0
-516 -519 0
-516 -520 0
-516 -521 0
-516 -522 0
-516 -523 0
-516 -524 0
-516 -525 0
-516 -526 0
-517 -518 0
-517 -519 0
-517 -520 0
-517 -521 0
-517 -522 0
-517 -523 0
-517 -524 0
-517 -525 0
-517 -526 0
-518 -519 0
-518 -520 0
-518 -521 0
-518 -522 0
-518 -523 0
-518 -524 0
-518 -525 0
-518 -526 0
-519 -520 0
-519 -521 0
-519 -522 0
-519 -523 0
-519 -524 0
-519 -525 0
-519 -526 0
-520 -521 0
-520 -522 0
-520 -523 0
-520 -524 0
-520 -525 0
-520 -526 0
-521 -522 0
-521 -523 0
-521 -524 0
-521 -525 0
-521 -526 0
-522 -523 0
-522 -524 0
-522 -525 0
-522 -526 0
-523 -524 0
-523 -525 0
-523 -526 0
-524 -525 0
-524 -526 0
-525 -526 0
-488 -507 0
-489 -507 0
-489 -508 0
-490 -507 0
-490 -508 0
-490 -509 0
-491 -507 0
-491 -508 0
-491 -509 0
-491 -510 0
-492 -507 0
-492 -508 0
-492 -509 0
-492 -510 0
-492 -511 0
-493 -507 0
-493 -508 0
-493 -509 0
-493 -510 0
-493 -511 0
-493 -512 0
-494 -507 0
-494 -508 0
-494 -509 0
-494 -510 0
-494 -511 0
-494 -512 0
-494 -513 0
-495 -507 0
-495 -508 0
-495 -509 0
-495 -510 0
-495 -511 0
-495 -512 0
-495 -513 0
-495 -514 0
-496 -507 0
-496 -508 0
-496 -509 0
-496 -510 0
-496 -511 0
-496 -512 0
-496 -513 0
-496 -514 0
-496 -515 0
-497 -507 0
-497 -508 0
-497 -509 0
-497 -510 0
-497 -511 0
-497 -512 0
-497 -513 0
-497 -514 0
-497 -515 0
-497 -516 0
-498 -507 0
-498 -508 0
-498 -509 0
-498 -510 0
-498 -511 0
-498 -512 0
-498 -513 0
-498 -514 0
-498 -515 0
-498 -516 0
-498 -517 0
-499 -507 0
-499 -508 0
-499 -509 0
-499 -510 0
-499 -511 0
-499 -512 0
-499 -513 0
-499 -514 0
-499 -515 0
-499 -516 0
-499 -517 0
-499 -518 0
-500 -507 0
-500 -508 0
-500 -509 0
-500 -510 0
-500 -511 0
-500 -512 0
-500 -513 0
-500 -514 0
-500 -515 0
-500 -516 0
-500 -517 0
-500 -518 0
-500 -519 0
-501 -507 0
-501 -508 0
-501 -509 0
-501 -510 0
-501 -511 0
-501 -512 0
-501 -513 0
-501 -514 0
-501 -515 0
-501 -516 0
-501 -517 0
-501 -518 0
-501 -519 0
-501 -520 0
-502 -507 0
-502 -508 0
-502 -509 0
-502 -510 0
-502 -511 0
-502 -512 0
-502 -513 0
-502 -514 0
-502 -515 0
-502 -516 0
-502 -517 0
-502 -518 0
-502 -519 0
-502 -520 0
-502 -521 0
-503 -507 0
-503 -508 0
-503 -509 0
-503 -510 0
-503 -511 0
-503 -512 0
-503 -513 0
-503 -514 0
-503 -515 0
-503 -516 0
-503 -517 0
-503 -518 0
-503 -519 0
-503 -520 0
-503 -521 0
-503 -522 0
-504 -507 0
-504 -508 0
-504 -509 0
-504 -510 0
-504 -511 0
-504 -512 0
-504 -513 0
-504 -514 0
-504 -515 0
-504 -516 0
-504 -517 0
-504 -518 0
-504 -519 0
-504 -520 0
-504 -521 0
-504 -522 0
-504 -523 0
-505 -507 0
-505 -508 0
-505 -509 0
-505 -510 0
-505 -511 0
-505 -512 0
-505 -513 0
-505 -514 0
-505 -515 0
-505 -516 0
-505 -517 0
-505 -518 0
-505 -519 0
-505 -520 0
-505 -521 0
-505 -522 0
-505 -523 0
-505 -524 0
-506 -507 0
-506 -508 0
-506 -509 0
-506 -510 0
-506 -511 0
-506 -512 0
-506 -513 0
-506 -514 0
-506 -515 0
-506 -516 0
-506 -517 0
-506 -518 0
-506 -519 0
-506 -520 0
-506 -521 0
-506 -522 0
-506 -523 0
-506 -524 0
-506 -525 0
-487 -527 0
-488 527 0
-489 -527 0
-490 527 0
-491 -527 0
-492 527 0
-493 -527 0
-494 527 0
-495 -527 55 0
-495 527 -55 0
-496 -527 -55 0
-496 527 55 0
-497 -527 129 0
-497 527 -129 0
-498 -527 -129 0
-498 527 129 0
-499 -527 207 0
-499 527 -207 0
-500 -527 -207 0
-500 527 207 0
-501 -527 289 0
-501 527 -289 0
-502 -527 -289 0
-502 527 289 0
-503 -527 375 0
-503 527 -375 0
-504 -527 -375 0
-504 527 375 0
-505 -527 465 0
-505 527 -465 0
-506 -527 -465 0
-506 527 465 0
-507 -543 0
-508 543 0
-509 -543 0
-510 543 0
-511 -543 0
-512 543 0
-513 -543 0
-514 543 0
-515 -543 55 0
-515 543 -55 0
-516 -543 -55 0
-516 543 55 0
-517 -543 129 0
-517 543 -129 0
-518 -543 -129 0
-518 543 129 0
-519 -543 207 0
-519 543 -207 0
-520 -543 -207 0
-520 543 207 0
-521 -543 289 0
-521 543 -289 0
-522 -543 -289 0
-522 543 289 0
-523 -543 375 0
-523 543 -375 0
-524 -543 -375 0
-524 543 375 0
-525 -543 465 0
-525 543 -465 0
-526 -543 -465 0
-526 543 465 0
-481 527 543 -559 0
-481 527 -543 -559 0
-481 -527 543 -559 0
-481 -527 -543 559 0
-482 527 543 -559 0
-482 527 -543 559 0
-482 -527 543 559 0
-482 -527 -543 559 0
-483 527 543 -559 0
-483 527 -543 559 0
-483 -527 543 559 0
-483 -527 -543 -559 0
-484 527 543 559 0
-484 527 -543 559 0
-484 -527 543 559 0
-484 -527 -543 -559 0
-485 527 543 559 0
-485 527 -543 -559 0
-485 -527 543 -559 0
-485 -527 -543 -559 0
-486 527 543 559 0
-486 527 -543 -559 0
-486 -527 543 -559 0
-486 -527 -543 559 0
-487 528 0
-488 -528 0
-489 -528 0
-490 528 0
-491 -528 0
-492 528 0
-493 -528 0
-494 528 0
-495 -528 56 0
-495 528 -56 0
-496 -528 -56 0
-496 528 56 0
-497 -528 130 0
-497 528 -130 0
-498 -528 -130 0
-498 528 130 0
-499 -528 208 0
-499 528 -208 0
-500 -528 -208 0
-500 528 208 0
-501 -528 290 0
-501 528 -290 0
-502 -528 -290 0
-502 528 290 0
-503 -528 376 0
-503 528 -376 0
-504 -528 -376 0
-504 528 376 0
-505 -528 466 0
-505 528 -466 0
-506 -528 -466 0
-506 528 466 0
-507 544 0
-508 -544 0
-509 -544 0
-510 544 0
-511 -544 0
-512 544 0
-513 -544 0
-514 544 0
-515 -544 56 0
-515 544 -56 0
-516 -544 -56 0
-516 544 56 0
-517 -544 130 0
-517 544 -130 0
-518 -544 -130 0
-518 544 130 0
-519 -544 208 0
-519 544 -208 0
-520 -544 -208 0
-520 544 208 0
-521 -544 290 0
-521 544 -290 0
-522 -544 -290 0
-522 544 290 0
-523 -544 376 0
-523 544 -376 0
-524 -544 -376 0
-524 544 376 0
-525 -544 466 0
-525 544 -466 0
-526 -544 -466 0
-526 544 466 0
-481 528 544 -560 0
-481 528 -544 -560 0
-481 -528 544 -560 0
-481 -528 -544 560 0
-482 528 544 -560 0
-482 528 -544 560 0
-482 -528 544 560 0
-482 -528 -544 560 0
-483 528 544 -560 0
-483 528 -544 560 0
-483 -528 544 560 0
-483 -528 -544 -560 0
-484 528 544 560 0
-484 528 -544 560 0
-484 -528 544 560 0
-484 -528 -544 -560 0
-485 528 544 560 0
-485 528 -544 -560 0
-485 -528 544 -560 0
-485 -528 -544 -560 0
-486 528 544 560 0
-486 528 -544 -560 0
-486 -528 544 -560 0
-486 -528 -544 560 0
-487 -529 0
-488 529 0
-489 529 0
-490 -529 0
-491 -529 0
-492 529 0
-493 -529 0
-494 529 0
-495 -529 57 0
-495 529 -57 0
-496 -529 -57 0
-496 529 57 0
-497 -529 131 0
-497 529 -131 0
-498 -529 -131 0
-498 529 131 0
-499 -529 209 0
-499 529 -209 0
-500 -529 -209 0
-500 529 209 0
-501 -529 291 0
-501 529 -291 0
-502 -529 -291 0
-502 529 291 0
-503 -529 377 0
-503 529 -377 0
-504 -529 -377 0
-504 529 377 0
-505 -529 467 0
-505 529 -467 0
-506 -529 -467 0
-506 529 467 0
-507 -545 0
-508 545 0
-509 545 0
-510 -545 0
-511 -545 0
-512 545 0
-513 -545 0
-514 545 0
-515 -545 57 0
-515 545 -57 0
-516 -545 -57 0
-516 545 57 0
-517 -545 131 0
-517 545 -131 0
-518 -545 -131 0
-518 545 131 0
-519 -545 209 0
-519 545 -209 0
-520 -545 -209 0
-520 545 209 0
-521 -545 291 0
-521 545 -291 0
-522 -545 -291 0
-522 545 291 0
-523 -545 377 0
-523 545 -377 0
-524 -545 -377 0
-524 545 377 0
-525 -545 467 0
-525 545 -467 0
-526 -545 -467 0
-526 545 467 0
-481 529 545 -561 0
-481 529 -545 -561 0
-481 -529 545 -561 0
-481 -529 -545 561 0
-482 529 545 -561 0
-482 529 -545 561 0
-482 -529 545 561 0
-482 -529 -545 561 0
-483 529 545 -561 0
-483 529 -545 561 0
-483 -529 545 561 0
-483 -529 -545 -561 0
-484 529 545 561 0
-484 529 -545 561 0
-484 -529 545 561 0
-484 -529 -545 -561 0
-485 529 545 561 0
-485 529 -545 -561 0
-485 -529 545 -561 0
-485 -529 -545 -561 0
-486 529 545 561 0
-486 529 -545 -561 0
-486 -529 545 -561 0
-486 -529 -545 561 0
-487 530 0
-488 -530 0
-489 530 0
-490 -530 0
-491 -530 0
-492 530 0
-493 -530 0
-494 530 0
-495 -530 58 0
-495 530 -58 0
-496 -530 -58 0
-496 530 58 0
-497 -530 132 0
-497 530 -132 0
-498 -530 -132 0
-498 530 132 0
-499 -530 210 0
-499 530 -210 0
-500 -530 -210 0
-500 530 210 0
-501 -530 292 0
-501 530 -292 0
-502 -530 -292 0
-502 530 292 0
-503 -530 378 0
-503 530 -378 0
-504 -530 -378 0
-504 530 378 0
-505 -530 468 0
-505 530 -468 0
-506 -530 -468 0
-506 530 468 0
-507 546 0
-508 -546 0
-509 546 0
-510 -546 0
-511 -546 0
-512 546 0
-513 -546 0
-514 546 0
-515 -546 58 0
-515 546 -58 0
-516 -546 -58 0
-516 546 58 0
-517 -546 132 0
-517 546 -132 0
-518 -546 -132 0
-518 546 132 0
-519 -546 210 0
-519 546 -210 0
-520 -546 -210 0
-520 546 210 0
-521 -546 292 0
-521 546 -292 0
-522 -546 -292 0
-522 546 292 0
-523 -546 378 0
-523 546 -378 0
-524 -546 -378 0
-524 546 378 0
-525 -546 468 0
-525 546 -468 0
-526 -546 -468 0
-526 546 468 0
-481 530 546 -562 0
-481 530 -546 -562 0
-481 -530 546 -562 0
-481 -530 -546 562 0
-482 530 546 -562 0
-482 530 -546 562 0
-482 -530 546 562 0
-482 -530 -546 562 0
-483 530 546 -562 0
-483 530 -546 562 0
-483 -530 546 562 0
-483 -530 -546 -562 0
-484 530 546 562 0
-484 530 -546 562 0
-484 -530 546 562 0
-484 -530 -546 -562 0
-485 530 546 562 0
-485 530 -546 -562 0
-485 -530 546 -562 0
-485 -530 -546 -562 0
-486 530 546 562 0
-486 530 -546 -562 0
-486 -530 546 -562 0
-486 -530 -546 562 0
-487 -531 0
-488 531 0
-489 -531 0
-490 531 0
-491 531 0
-492 -531 0
-493 -531 0
-494 531 0
-495 -531 59 0
-495 531 -59 0
-496 -531 -59 0
-496 531 59 0
-497 -531 133 0
-497 531 -133 0
-498 -531 -133 0
-498 531 133 0
-499 -531 211 0
-499 531 -211 0
-500 -531 -211 0
-500 531 211 0
-501 -531 293 0
-501 531 -293 0
-502 -531 -293 0
-502 531 293 0
-503 -531 379 0
-503 531 -379 0
-504 -531 -379 0
-504 531 379 0
-505 -531 469 0
-505 531 -469 0
-506 -531 -469 0
-506 531 469 0
-507 -547 0
-508 547 0
-509 -547 0
-510 547 0
-511 547 0
-512 -547 0
-513 -547 0
-514 547 0
-515 -547 59 0
-515 547 -59 0
-516 -547 -59 0
-516 547 59 0
-517 -547 133 0
-517 547 -133 0
-518 -547 -133 0
-518 547 133 0
-519 -547 211 0
-519 547 -211 0
-520 -547 -211 0
-520 547 211 0
-521 -547 293 0
-521 547 -293 0
-522 -547 -293 0
-522 547 293 0
-523 -547 379 0
-523 547 -379 0
-524 -547 -379 0
-524 547 379 0
-525 -547 469 0
-525 547 -469 0
-526 -547 -469 0
-526 547 469 0
-481 531 547 -563 0
-481 531 -547 -563 0
-481 -531 547 -563 0
-481 -531 -547 563 0
-482 531 547 -563 0
-482 531 -547 563 0
-482 -531 547 563 0
-482 -531 -547 563 0
-483 531 547 -563 0
-483 531 -547 563 0
-483 -531 547 563 0
-483 -531 -547 -563 0
-484 531 547 563 0
-484 531 -547 563 0
-484 -531 547 563 0
-484 -531 -547 -563 0
-485 531 547 563 0
-485 531 -547 -563 0
-485 -531 547 -563 0
-485 -531 -547 -563 0
-486 531 547 563 0
-486 531 -547 -563 0
-486 -531 547 -563 0
-486 -531 -547 563 0
-487 532 0
-488 -532 0
-489 -532 0
-490 532 0
-491 532 0
-492 -532 0
-493 -532 0
-494 532 0
-495 -532 60 0
-495 532 -60 0
-496 -532 -60 0
-496 532 60 0
-497 -532 134 0
-497 532 -134 0
-498 -532 -134 0
-498 532 134 0
-499 -532 212 0
-499 532 -212 0
-500 -532 -212 0
-500 532 212 0
-501 -532 294 0
-501 532 -294 0
-502 -532 -294 0
-502 532 294 0
-503 -532 380 0
-503 532 -380 0
-504 -532 -380 0
-504 532 380 0
-505 -532 470 0
-505 532 -470 0
-506 -532 -470 0
-506 532 470 0
-507 548 0
-508 -548 0
-509 -548 0
-510 548 0
-511 548 0
-512 -548 0
-513 -548 0
-514 548 0
-515 -548 60 0
-515 548 -60 0
-516 -548 -60 0
-516 548 60 0
-517 -548 134 0
-517 548 -134 0
-518 -548 -134 0
-518 548 134 0
-519 -548 212 0
-519 548 -212 0
-520 -548 -212 0
-520 548 212 0
-521 -548 294 0
-521 548 -294 0
-522 -548 -294 0
-522 548 294 0
-523 -548 380 0
-523 548 -380 0
-524 -548 -380 0
-524 548 380 0
-525 -548 470 0
-525 548 -470 0
-526 -548 -470 0
-526 548 470 0
-481 532 548 -564 0
-481 532 -548 -564 0
-481 -532 548 -564 0
-481 -532 -548 564 0
-482 532 548 -564 0
-482 532 -548 564 0
-482 -532 548 564 0
-482 -532 -548 564 0
-483 532 548 -564 0
-483 532 -548 564 0
-483 -532 548 564 0
-483 -532 -548 -564 0
-484 532 548 564 0
-484 532 -548 564 0
-484 -532 548 564 0
-484 -532 -548 -564 0
-485 532 548 564 0
-485 532 -548 -564 0
-485 -532 548 -564 0
-485 -532 -548 -564 0
-486 532 548 564 0
-486 532 -548 -564 0
-486 -532 548 -564 0
-486 -532 -548 564 0
-487 -533 0
-488 533 0
-489 533 0
-490 -533 0
-491 533 0
-492 -533 0
-493 -533 0
-494 533 0
-495 -533 61 0
-495 533 -61 0
-496 -533 -61 0
-496 533 61 0
-497 -533 135 0
-497 533 -135 0
-498 -533 -135 0
-498 533 135 0
-499 -533 213 0
-499 533 -213 0
-500 -533 -213 0
-500 533 213 0
-501 -533 295 0
-501 533 -295 0
-502 -533 -295 0
-502 533 295 0
-503 -533 381 0
-503 533 -381 0
-504 -533 -381 0
-504 533 381 0
-505 -533 471 0
-505 533 -471 0
-506 -533 -471 0
-506 533 471 0
-507 -549 0
-508 549 0
-509 549 0
-510 -549 0
-511 549 0
-512 -549 0
-513 -549 0
-514 549 0
-515 -549 61 0
-515 549 -61 0
-516 -549 -61 0
-516 549 61 0
-517 -549 135 0
-517 549 -135 0
-518 -549 -135 0
-518 549 135 0
-519 -549 213 0
-519 549 -213 0
-520 -549 -213 0
-520 549 213 0
-521 -549 295 0
-521 549 -295 0
-522 -549 -295 0
-522 549 295 0
-523 -549 381 0
-523 549 -381 0
-524 -549 -381 0
-524 549 381 0
-525 -549 471 0
-525 549 -471 0
-526 -549 -471 0
-526 549 471 0
-481 533 549 -565 0
-481 533 -549 -565 0
-481 -533 549 -565 0
-481 -533 -549 565 0
-482 533 549 -565 0
-482 533 -549 565 0
-482 -533 549 565 0
-482 -533 -549 565 0
-483 533 549 -565 0
-483 533 -549 565 0
-483 -533 549 565 0
-483 -533 -549 -565 0
-484 533 549 565 0
-484 533 -549 565 0
-484 -533 549 565 0
-484 -533 -549 -565 0
-485 533 549 565 0
-485 533 -549 -565 0
-485 -533 549 -565 0
-485 -533 -549 -565 0
-486 533 549 565 0
-486 533 -549 -565 0
-486 -533 549 -565 0
-486 -533 -549 565 0
-487 534 0
-488 -534 0
-489 534 0
-490 -534 0
-491 534 0
-492 -534 0
-493 -534 0
-494 534 0
-495 -534 62 0
-495 534 -62 0
-496 -534 -62 0
-496 534 62 0
-497 -534 136 0
-497 534 -136 0
-498 -534 -136 0
-498 534 136 0
-499 -534 214 0
-499 534 -214 0
-500 -534 -214 0
-500 534 214 0
-501 -534 296 0
-501 534 -296 0
-502 -534 -296 0
-502 534 296 0
-503 -534 382 0
-503 534 -382 0
-504 -534 -382 0
-504 534 382 0
-505 -534 472 0
-505 534 -472 0
-506 -534 -472 0
-506 534 472 0
-507 550 0
-508 -550 0
-509 550 0
-510 -550 0
-511 550 0
-512 -550 0
-513 -550 0
-514 550 0
-515 -550 62 0
-515 550 -62 0
-516 -550 -62 0
-516 550 62 0
-517 -550 136 0
-517 550 -136 0
-518 -550 -136 0
-518 550 136 0
-519 -550 214 0
-519 550 -214 0
-520 -550 -214 0
-520 550 214 0
-521 -550 296 0
-521 550 -296 0
-522 -550 -296 0
-522 550 296 0
-523 -550 382 0
-523 550 -382 0
-524 -550 -382 0
-524 550 382 0
-525 -550 472 0
-525 550 -472 0
-526 -550 -472 0
-526 550 472 0
-481 534 550 -566 0
-481 534 -550 -566 0
-481 -534 550 -566 0
-481 -534 -550 566 0
-482 534 550 -566 0
-482 534 -550 566 0
-482 -534 550 566 0
-482 -534 -550 566 0
-483 534 550 -566 0
-483 534 -550 566 0
-483 -534 550 566 0
-483 -534 -550 -566 0
-484 534 550 566 0
-484 534 -550 566 0
-484 -534 550 566 0
-484 -534 -550 -566 0
-485 534 550 566 0
-485 534 -550 -566 0
-485 -534 550 -566 0
-485 -534 -550 -566 0
-486 534 550 566 0
-486 534 -550 -566 0
-486 -534 550 -566 0
-486 -534 -550 566 0
-487 -535 0
-488 535 0
-489 -535 0
-490 535 0
-491 -535 0
-492 535 0
-493 535 0
-494 -535 0
-495 -535 63 0
-495 535 -63 0
-496 -535 -63 0
-496 535 63 0
-497 -535 137 0
-497 535 -137 0
-498 -535 -137 0
-498 535 137 0
-499 -535 215 0
-499 535 -215 0
-500 -535 -215 0
-500 535 215 0
-501 -535 297 0
-501 535 -297 0
-502 -535 -297 0
-502 535 297 0
-503 -535 383 0
-503 535 -383 0
-504 -535 -383 0
-504 535 383 0
-505 -535 473 0
-505 535 -473 0
-506 -535 -473 0
-506 535 473 0
-507 -551 0
-508 551 0
-509 -551 0
-510 551 0
-511 -551 0
-512 551 0
-513 551 0
-514 -551 0
-515 -551 63 0
-515 551 -63 0
-516 -551 -63 0
-516 551 63 0
-517 -551 137 0
-517 551 -137 0
-518 -551 -137 0
-518 551 137 0
-519 -551 215 0
-519 551 -215 0
-520 -551 -215 0
-520 551 215 0
-521 -551 297 0
-521 551 -297 0
-522 -551 -297 0
-522 551 297 0
-523 -551 383 0
-523 551 -383 0
-524 -551 -383 0
-524 551 383 0
-525 -551 473 0
-525 551 -473 0
-526 -551 -473 0
-526 551 473 0
-481 535 551 -567 0
-481 535 -551 -567 0
-481 -535 551 -567 0
-481 -535 -551 567 0
-482 535 551 -567 0
-482 535 -551 567 0
-482 -535 551 567 0
-482 -535 -551 567 0
-483 535 551 -567 0
-483 535 -551 567 0
-483 -535 551 567 0
-483 -535 -551 -567 0
-484 535 551 567 0
-484 535 -551 567 0
-484 -535 551 567 0
-484 -535 -551 -567 0
-485 535 551 567 0
-485 535 -551 -567 0
-485 -535 551 -567 0
-485 -535 -551 -567 0
-486 535 551 567 0
-486 535 -551 -567 0
-486 -535 551 -567 0
-486 -535 -551 567 0
-487 536 0
-488 -536 0
-489 -536 0
-490 536 0
-491 -536 0
-492 536 0
-493 536 0
-494 -536 0
-495 -536 64 0
-495 536 -64 0
-496 -536 -64 0
-496 536 64 0
-497 -536 138 0
-497 536 -138 0
-498 -536 -138 0
-498 536 138 0
-499 -536 216 0
-499 536 -216 0
-500 -536 -216 0
-500 536 216 0
-501 -536 298 0
-501 536 -298 0
-502 -536 -298 0
-502 536 298 0
-503 -536 384 0
-503 536 -384 0
-504 -536 -384 0
-504 536 384 0
-505 -536 474 0
-505 536 -474 0
-506 -536 -474 0
-506 536 474 0
-507 552 0
-508 -552 0
-509 -552 0
-510 552 0
-511 -552 0
-512 552 0
-513 552 0
-514 -552 0
-515 -552 64 0
-515 552 -64 0
-516 -552 -64 0
-516 552 64 0
-517 -552 138 0
-517 552 -138 0
-518 -552 -138 0
-518 552 138 0
-519 -552 216 0
-519 552 -216 0
-520 -552 -216 0
-520 552 216 0
-521 -552 298 0
-521 552 -298 0
-522 -552 -298 0
-522 552 298 0
-523 -552 384 0
-523 552 -384 0
-524 -552 -384 0
-524 552 384 0
-525 -552 474 0
-525 552 -474 0
-526 -552 -474 0
-526 552 474 0
-481 536 552 -568 0
-481 536 -552 -568 0
-481 -536 552 -568 0
-481 -536 -552 568 0
-482 536 552 -568 0
-482 536 -552 568 0
-482 -536 552 568 0
-482 -536 -552 568 0
-483 536 552 -568 0
-483 536 -552 568 0
-483 -536 552 568 0
-483 -536 -552 -568 0
-484 536 552 568 0
-484 536 -552 568 0
-484 -536 552 568 0
-484 -536 -552 -568 0
-485 536 552 568 0
-485 536 -552 -568 0
-485 -536 552 -568 0
-485 -536 -552 -568 0
-486 536 552 568 0
-486 536 -552 -568 0
-486 -536 552 -568 0
-486 -536 -552 568 0
-487 -537 0
-488 537 0
-489 537 0
-490 -537 0
-491 -537 0
-492 537 0
-493 537 0
-494 -537 0
-495 -537 65 0
-495 537 -65 0
-496 -537 -65 0
-496 537 65 0
-497 -537 139 0
-497 537 -139 0
-498 -537 -139 0
-498 537 139 0
-499 -537 217 0
-499 537 -217 0
-500 -537 -217 0
-500 537 217 0
-501 -537 299 0
-501 537 -299 0
-502 -537 -299 0
-502 537 299 0
-503 -537 385 0
-503 537 -385 0
-504 -537 -385 0
-504 537 385 0
-505 -537 475 0
-505 537 -475 0
-506 -537 -475 0
-506 537 475 0
-507 -553 0
-508 553 0
-509 553 0
-510 -553 0
-511 -553 0
-512 553 0
-513 553 0
-514 -553 0
-515 -553 65 0
-515 553 -65 0
-516 -553 -65 0
-516 553 65 0
-517 -553 139 0
-517 553 -139 0
-518 -553 -139 0
-518 553 139 0
-519 -553 217 0
-519 553 -217 0
-520 -553 -217 0
-520 553 217 0
-521 -553 299 0
-521 553 -299 0
-522 -553 -299 0
-522 553 299 0
-523 -553 385 0
-523 553 -385 0
-524 -553 -385 0
-524 553 385 0
-525 -553 475 0
-525 553 -475 0
-526 -553 -475 0
-526 553 475 0
-481 537 553 -569 0
-481 537 -553 -569 0
-481 -537 553 -569 0
-481 -537 -553 569 0
-482 537 553 -569 0
-482 537 -553 569 0
-482 -537 553 569 0
-482 -537 -553 569 0
-483 537 553 -569 0
-483 537 -553 569 0
-483 -537 553 569 0
-483 -537 -553 -569 0
-484 537 553 569 0
-484 537 -553 569 0
-484 -537 553 569 0
-484 -537 -553 -569 0
-485 537 553 569 0
-485 537 -553 -569 0
-485 -537 553 -569 0
-485 -537 -553 -569 0
-486 537 553 569 0
-486 537 -553 -569 0
-486 -537 553 -569 0
-486 -537 -553 569 0
-487 538 0
-488 -538 0
-489 538 0
-490 -538 0
-491 -538 0
-492 538 0
-493 538 0
-494 -538 0
-495 -538 66 0
-495 538 -66 0
-496 -538 -66 0
-496 538 66 0
-497 -538 140 0
-497 538 -140 0
-498 -538 -140 0
-498 538 140 0
-499 -538 218 0
-499 538 -218 0
-500 -538 -218 0
-500 538 218 0
-501 -538 300 0
-501 538 -300 0
-502 -538 -300 0
-502 538 300 0
-503 -538 386 0
-503 538 -386 0
-504 -538 -386 0
-504 538 386 0
-505 -538 476 0
-505 538 -476 0
-506 -538 -476 0
-506 538 476 0
-507 554 0
-508 -554 0
-509 554 0
-510 -554 0
-511 -554 0
-512 554 0
-513 554 0
-514 -554 0
-515 -554 66 0
-515 554 -66 0
-516 -554 -66 0
-516 554 66 0
-517 -554 140 0
-517 554 -140 0
-518 -554 -140 0
-518 554 140 0
-519 -554 218 0
-519 554 -218 0
-520 -554 -218 0
-520 554 218 0
-521 -554 300 0
-521 554 -300 0
-522 -554 -300 0
-522 554 300 0
-523 -554 386 0
-523 554 -386 0
-524 -554 -386 0
-524 554 386 0
-525 -554 476 0
-525 554 -476 0
-526 -554 -476 0
-526 554 476 0
-481 538 554 -570 0
-481 538 -554 -570 0
-481 -538 554 -570 0
-481 -538 -554 570 0
-482 538 554 -570 0
-482 538 -554 570 0
-482 -538 554 570 0
-482 -538 -554 570 0
-483 538 554 -570 0
-483 538 -554 570 0
-483 -538 554 570 0
-483 -538 -554 -570 0
-484 538 554 570 0
-484 538 -554 570 0
-484 -538 554 570 0
-484 -538 -554 -570 0
-485 538 554 570 0
-485 538 -554 -570 0
-485 -538 554 -570 0
-485 -538 -554 -570 0
-486 538 554 570 0
-486 538 -554 -570 0
-486 -538 554 -570 0
-486 -538 -554 570 0
-487 -539 0
-488 539 0
-489 -539 0
-490 539 0
-491 539 0
-492 -539 0
-493 539 0
-494 -539 0
-495 -539 67 0
-495 539 -67 0
-496 -539 -67 0
-496 539 67 0
-497 -539 141 0
-497 539 -141 0
-498 -539 -141 0
-498 539 141 0
-499 -539 219 0
-499 539 -219 0
-500 -539 -219 0
-500 539 219 0
-501 -539 301 0
-501 539 -301 0
-502 -539 -301 0
-502 539 301 0
-503 -539 387 0
-503 539 -387 0
-504 -539 -387 0
-504 539 387 0
-505 -539 477 0
-505 539 -477 0
-506 -539 -477 0
-506 539 477 0
-507 -555 0
-508 555 0
-509 -555 0
-510 555 0
-511 555 0
-512 -555 0
-513 555 0
-514 -555 0
-515 -555 67 0
-515 555 -67 0
-516 -555 -67 0
-516 555 67 0
-517 -555 141 0
-517 555 -141 0
-518 -555 -141 0
-518 555 141 0
-519 -555 219 0
-519 555 -219 0
-520 -555 -219 0
-520 555 219 0
-521 -555 301 0
-521 555 -301 0
-522 -555 -301 0
-522 555 301 0
-523 -555 387 0
-523 555 -387 0
-524 -555 -387 0
-524 555 387 0
-525 -555 477 0
-525 555 -477 0
-526 -555 -477 0
-526 555 477 0
-481 539 555 -571 0
-481 539 -555 -571 0
-481 -539 555 -571 0
-481 -539 -555 571 0
-482 539 555 -571 0
-482 539 -555 571 0
-482 -539 555 571 0
-482 -539 -555 571 0
-483 539 555 -571 0
-483 539 -555 571 0
-483 -539 555 571 0
-483 -539 -555 -571 0
-484 539 555 571 0
-484 539 -555 571 0
-484 -539 555 571 0
-484 -539 -555 -571 0
-485 539 555 571 0
-485 539 -555 -571 0
-485 -539 555 -571 0
-485 -539 -555 -571 0
-486 539 555 571 0
-486 539 -555 -571 0
-486 -539 555 -571 0
-486 -539 -555 571 0
-487 540 0
-488 -540 0
-489 -540 0
-490 540 0
-491 540 0
-492 -540 0
-493 540 0
-494 -540 0
-495 -540 68 0
-495 540 -68 0
-496 -540 -68 0
-496 540 68 0
-497 -540 142 0
-497 540 -142 0
-498 -540 -142 0
-498 540 142 0
-499 -540 220 0
-499 540 -220 0
-500 -540 -220 0
-500 540 220 0
-501 -540 302 0
-501 540 -302 0
-502 -540 -302 0
-502 540 302 0
-503 -540 388 0
-503 540 -388 0
-504 -540 -388 0
-504 540 388 0
-505 -540 478 0
-505 540 -478 0
-506 -540 -478 0
-506 540 478 0
-507 556 0
-508 -556 0
-509 -556 0
-510 556 0
-511 556 0
-512 -556 0
-513 556 0
-514 -556 0
-515 -556 68 0
-515 556 -68 0
-516 -556 -68 0
-516 556 68 0
-517 -556 142 0
-517 556 -142 0
-518 -556 -142 0
-518 556 142 0
-519 -556 220 0
-519 556 -220 0
-520 -556 -220 0
-520 556 220 0
-521 -556 302 0
-521 556 -302 0
-522 -556 -302 0
-522 556 302 0
-523 -556 388 0
-523 556 -388 0
-524 -556 -388 0
-524 556 388 0
-525 -556 478 0
-525 556 -478 0
-526 -556 -478 0
-526 556 478 0
-481 540 556 -572 0
-481 540 -556 -572 0
-481 -540 556 -572 0
-481 -540 -556 572 0
-482 540 556 -572 0
-482 540 -556 572 0
-482 -540 556 572 0
-482 -540 -556 572 0
-483 540 556 -572 0
-483 540 -556 572 0
-483 -540 556 572 0
-483 -540 -556 -572 0
-484 540 556 572 0
-484 540 -556 572 0
-484 -540 556 572 0
-484 -540 -556 -572 0
-485 540 556 572 0
-485 540 -556 -572 0
-485 -540 556 -572 0
-485 -540 -556 -572 0
-486 540 556 572 0
-486 540 -556 -572 0
-486 -540 556 -572 0
-486 -540 -556 572 0
-487 -541 0
-488 541 0
-489 541 0
-490 -541 0
-491 541 0
-492 -541 0
-493 541 0
-494 -541 0
-495 -541 69 0
-495 541 -69 0
-496 -541 -69 0
-496 541 69 0
-497 -541 143 0
-497 541 -143 0
-498 -541 -143 0
-498 541 143 0
-499 -541 221 0
-499 541 -221 0
-500 -541 -221 0
-500 541 221 0
-501 -541 303 0
-501 541 -303 0
-502 -541 -303 0
-502 541 303 0
-503 -541 389 0
-503 541 -389 0
-504 -541 -389 0
-504 541 389 0
-505 -541 479 0
-505 541 -479 0
-506 -541 -479 0
-506 541 479 0
-507 -557 0
-508 557 0
-509 557 0
-510 -557 0
-511 557 0
-512 -557 0
-513 557 0
-514 -557 0
-515 -557 69 0
-515 557 -69 0
-516 -557 -69 0
-516 557 69 0
-517 -557 143 0
-517 557 -143 0
-518 -557 -143 0
-518 557 143 0
-519 -557 221 0
-519 557 -221 0
-520 -557 -221 0
-520 557 221 0
-521 -557 303 0
-521 557 -303 0
-522 -557 -303 0
-522 557 303 0
-523 -557 389 0
-523 557 -389 0
-524 -557 -389 0
-524 557 389 0
-525 -557 479 0
-525 557 -479 0
-526 -557 -479 0
-526 557 479 0
-481 541 557 -573 0
-481 541 -557 -573 0
-481 -541 557 -573 0
-481 -541 -557 573 0
-482 541 557 -573 0
-482 541 -557 573 0
-482 -541 557 573 0
-482 -541 -557 573 0
-483 541 557 -573 0
-483 541 -557 573 0
-483 -541 557 573 0
-483 -541 -557 -573 0
-484 541 557 573 0
-484 541 -557 573 0
-484 -541 557 573 0
-484 -541 -557 -573 0
-485 541 557 573 0
-485 541 -557 -573 0
-485 -541 557 -573 0
-485 -541 -557 -573 0
-486 541 557 573 0
-486 541 -557 -573 0
-486 -541 557 -573 0
-486 -541 -557 573 0
-487 542 0
-488 -542 0
-489 542 0
-490 -542 0
-491 542 0
-492 -542 0
-493 542 0
-494 -542 0
-495 -542 70 0
-495 542 -70 0
-496 -542 -70 0
-496 542 70 0
-497 -542 144 0
-497 542 -144 0
-498 -542 -144 0
-498 542 144 0
-499 -542 222 0
-499 542 -222 0
-500 -542 -222 0
-500 542 222 0
-501 -542 304 0
-501 542 -304 0
-502 -542 -304 0
-502 542 304 0
-503 -542 390 0
-503 542 -390 0
-504 -542 -390 0
-504 542 390 0
-505 -542 480 0
-505 542 -480 0
-506 -542 -480 0
-506 542 480 0
-507 558 0
-508 -558 0
-509 558 0
-510 -558 0
-511 558 0
-512 -558 0
-513 558 0
-514 -558 0
-515 -558 70 0
-515 558 -70 0
-516 -558 -70 0
-516 558 70 0
-517 -558 144 0
-517 558 -144 0
-518 -558 -144 0
-518 558 144 0
-519 -558 222 0
-519 558 -222 0
-520 -558 -222 0
-520 558 222 0
-521 -558 304 0
-521 558 -304 0
-522 -558 -304 0
-522 558 304 0
-523 -558 390 0
-523 558 -390 0
-524 -558 -390 0
-524 558 390 0
-525 -558 480 0
-525 558 -480 0
-526 -558 -480 0
-526 558 480 0
-481 542 558 -574 0
-481 542 -558 -574 0
-481 -542 558 -574 0
-481 -542 -558 574 0
-482 542 558 -574 0
-482 542 -558 574 0
-482 -542 558 574 0
-482 -542 -558 574 0
-483 542 558 -574 0
-483 542 -558 574 0
-483 -542 558 574 0
-483 -542 -558 -574 0
-484 542 558 574 0
-484 542 -558 574 0
-484 -542 558 574 0
-484 -542 -558 -574 0
-485 542 558 574 0
-485 542 -558 -574 0
-485 -542 558 -574 0
-485 -542 -558 -574 0
-486 542 558 574 0
-486 542 -558 -574 0
-486 -542 558 -574 0
-486 -542 -558 574 0
575 576 577 578 579 580 581 582 583 584 585 586 587 588 589 590 591 592 593 594 595 596 0
-575 -576 0
-575 -577 0
-575 -578 0
-575 -579 0
-575 -580 0
-575 -581 0
-575 -582 0
-575 -583 0
-575 -584 0
-575 -585 0
-575 -586 0
-575 -587 0
-575 -588 0
-575 -589 0
-575 -590 0
-575 -591 0
-575 -592 0
-575 -593 0
-575 -594 0
-575 -595 0
-575 -596 0
-576 -577 0
-576 -578 0
-576 -579 0
-576 -580 0
-576 -581 0
-576 -582 0
-576 -583 0
-576 -584 0
-576 -585 0
-576 -586 0
-576 -587 0
-576 -588 0
-576 -589 0
-576 -590 0
-576 -591 0
-576 -592 0
-576 -593 0
-576 -594 0
-576 -595 0
-576 -596 0
-577 -578 0
-577 -579 0
-577 -580 0
-577 -581 0
-577 -582 0
-577 -583 0
-577 -584 0
-577 -585 0
-577 -586 0
-577 -587 0
-577 -588 0
-577 -589 0
-577 -590 0
-577 -591 0
-577 -592 0
-577 -593 0
-577 -594 0
-577 -595 0
-577 -596 0
-578 -579 0
-578 -580 0
-578 -581 0
-578 -582 0
-578 -583 0
-578 -584 0
-578 -585 0
-578 -586 0
-578 -587 0
-578 -588 0
-578 -589 0
-578 -590 0
-578 -591 0
-578 -592 0
-578 -593 0
-578 -594 0
-578 -595 0
-578 -596 0
-579 -580 0
-579 -581 0
-579 -582 0
-579 -583 0
-579 -584 0
-579 -585 0
-579 -586 0
-579 -587 0
-579 -588 0
-579 -589 0
-579 -590 0
-579 -591 0
-579 -592 0
-579 -593 0
-579 -594 0
-579 -595 0
-579 -596 0
-580 -581 0
-580 -582 0
-580 -583 0
-580 -584 0
-580 -585 0
-580 -586 0
-580 -587 0
-580 -588 0
-580 -589 0
-580 -590 0
-580 -591 0
-580 -592 0
-580 -593 0
-580 -594 0
-580 -595 0
-580 -596 0
-581 -582 0
-581 -583 0
-581 -584 0
-581 -585 0
-581 -586 0
-581 -587 0
-581 -588 0
-581 -589 0
-581 -590 0
-581 -591 0
-581 -592 0
-581 -593 0
-581 -594 0
-581 -595 0
-581 -596 0
-582 -583 0
-582 -584 0
-582 -585 0
-582 -586 0
-582 -587 0
-582 -588 0
-582 -589 0
-582 -590 0
-582 -591 0
-582 -592 0
-582 -593 0
-582 -594 0
-582 -595 0
-582 -596 0
-583 -584 0
-583 -585 0
-583 -586 0
-583 -587 0
-583 -588 0
-583 -589 0
-583 -590 0
-583 -591 0
-583 -592 0
-583 -593 0
-583 -594 0
-583 -595 0
-583 -596 0
-584 -585 0
-584 -586 0
-584 -587 0
-584 -588 0
-584 -589 0
-584 -590 0
-584 -591 0
-584 -592 0
-584 -593 0
-584 -594 0
-584 -595 0
-584 -596 0
-585 -586 0
-585 -587 0
-585 -588 0
-585 -589 0
-585 -590 0
-585 -591 0
-585 -592 0
-585 -593 0
-585 -594 0
-585 -595 0
-585 -596 0
-586 -587 0
-586 -588 0
-586 -589 0
-586 -590 0
-586 -591 0
-586 -592 0
-586 -593 0
-586 -594 0
-586 -595 0
-586 -596 0
-587 -588 0
-587 -589 0
-587 -590 0
-587 -591 0
-587 -592 0
-587 -593 0
-587 -594 0
-587 -595 0
-587 -596 0
-588 -589 0
-588 -590 0
-588 -591 0
-588 -592 0
-588 -593 0
-588 -594 0
-588 -595 0
-588 -596 0
-589 -590 0
-589 -591 0
-589 -592 0
-589 -593 0
-589 -594 0
-589 -595 0
-589 -596 0
-590 -591 0
-590 -592 0
-590 -593 0
-590 -594 0
-590 -595 0
-590 -596 0
-591 -592 0
-591 -593 0
-591 -594 0
-591 -595 0
-591 -596 0
-592 -593 0
-592 -594 0
-592 -595 0
-592 -596 0
-593 -594 0
-593 -595 0
-593 -596 0
-594 -595 0
-594 -596 0
-595 -596 0
-575 -597 0
-576 597 0
-577 -597 0
-578 597 0
-579 -597 0
-580 597 0
-581 -597 0
-582 597 0
-583 -597 55 0
-583 597 -55 0
-584 -597 -55 0
-584 597 55 0
-585 -597 129 0
-585 597 -129 0
-586 -597 -129 0
-586 597 129 0
-587 -597 207 0
-587 597 -207 0
-588 -597 -207 0
-588 597 207 0
-589 -597 289 0
-589 597 -289 0
-590 -597 -289 0
-590 597 289 0
-591 -597 375 0
-591 597 -375 0
-592 -597 -375 0
-592 597 375 0
-593 -597 465 0
-593 597 -465 0
-594 -597 -465 0
-594 597 465 0
-595 -597 559 0
-595 597 -559 0
-596 -597 -559 0
-596 597 559 0
-575 598 0
-576 -598 0
-577 -598 0
-578 598 0
-579 -598 0
-580 598 0
-581 -598 0
-582 598 0
-583 -598 56 0
-583 598 -56 0
-584 -598 -56 0
-584 598 56 0
-585 -598 130 0
-585 598 -130 0
-586 -598 -130 0
-586 598 130 0
-587 -598 208 0
-587 598 -208 0
-588 -598 -208 0
-588 598 208 0
-589 -598 290 0
-589 598 -290 0
-590 -598 -290 0
-590 598 290 0
-591 -598 376 0
-591 598 -376 0
-592 -598 -376 0
-592 598 376 0
-593 -598 466 0
-593 598 -466 0
-594 -598 -466 0
-594 598 466 0
-595 -598 560 0
-595 598 -560 0
-596 -598 -560 0
-596 598 560 0
-575 -599 0
-576 599 0
-577 599 0
-578 -599 0
-579 -599 0
-580 599 0
-581 -599 0
-582 599 0
-583 -599 57 0
-583 599 -57 0
-584 -599 -57 0
-584 599 57 0
-585 -599 131 0
-585 599 -131 0
-586 -599 -131 0
-586 599 131 0
-587 -599 209 0
-587 599 -209 0
-588 -599 -209 0
-588 599 209 0
-589 -599 291 0
-589 599 -291 0
-590 -599 -291 0
-590 599 291 0
-591 -599 377 0
-591 599 -377 0
-592 -599 -377 0
-592 599 377 0
-593 -599 467 0
-593 599 -467 0
-594 -599 -467 0
-594 599 467 0
-595 -599 561 0
-595 599 -561 0
-596 -599 -561 0
-596 599 561 0
-575 600 0
-576 -600 0
-577 600 0
-578 -600 0
-579 -600 0
-580 600 0
-581 -600 0
-582 600 0
-583 -600 58 0
-583 600 -58 0
-584 -600 -58 0
-584 600 58 0
-585 -600 132 0
-585 600 -132 0
-586 -600 -132 0
-586 600 132 0
-587 -600 210 0
-587 600 -210 0
-588 -600 -210 0
-588 600 210 0
-589 -600 292 0
-589 600 -292 0
-590 -600 -292 0
-590 600 292 0
-591 -600 378 0
-591 600 -378 0
-592 -600 -378 0
-592 600 378 0
-593 -600 468 0
-593 600 -468 0
-594 -600 -468 0
-594 600 468 0
-595 -600 562 0
-595 600 -562 0
-596 -600 -562 0
-596 600 562 0
-575 -601 0
-576 601 0
-577 -601 0
-578 601 0
-579 601 0
-580 -601 0
-581 -601 0
-582 601 0
-583 -601 59 0
-583 601 -59 0
-584 -601 -59 0
-584 601 59 0
-585 -601 133 0
-585 601 -133 0
-586 -601 -133 0
-586 601 133 0
-587 -601 211 0
-587 601 -211 0
-588 -601 -211 0
-588 601 211 0
-589 -601 293 0
-589 601 -293 0
-590 -601 -293 0
-590 601 293 0
-591 -601 379 0
-591 601 -379 0
-592 -601 -379 0
-592 601 379 0
-593 -601 469 0
-593 601 -469 0
-594 -601 -469 0
-594 601 469 0
-595 -601 563 0
-595 601 -563 0
-596 -601 -563 0
-596 601 563 0
-575 602 0
-576 -602 0
-577 -602 0
-578 602 0
-579 602 0
-580 -602 0
-581 -602 0
-582 602 0
-583 -602 60 0
-583 602 -60 0
-584 -602 -60 0
-584 602 60 0
-585 -602 134 0
-585 602 -134 0
-586 -602 -134 0
-586 602 134 0
-587 -602 212 0
-587 602 -212 0
-588 -602 -212 0
-588 602 212 0
-589 -602 294 0
-589 602 -294 0
-590 -602 -294 0
-590 602 294 0
-591 -602 380 0
-591 602 -380 0
-592 -602 -380 0
-592 602 380 0
-593 -602 470 0
-593 602 -470 0
-594 -602 -470 0
-594 602 470 0
-595 -602 564 0
-595 602 -564 0
-596 -602 -564 0
-596 602 564 0
-575 -603 0
-576 603 0
-577 603 0
-578 -603 0
-579 603 0
-580 -603 0
-581 -603 0
-582 603 0
-583 -603 61 0
-583 603 -61 0
-584 -603 -61 0
-584 603 61 0
-585 -603 135 0
-585 603 -135 0
-586 -603 -135 0
-586 603 135 0
-587 -603 213 0
-587 603 -213 0
-588 -603 -213 0
-588 603 213 0
-589 -603 295 0
-589 603 -295 0
-590 -603 -295 0
-590 603 295 0
-591 -603 381 0
-591 603 -381 0
-592 -603 -381 0
-592 603 381 0
-593 -603 471 0
-593 603 -471 0
-594 -603 -471 0
-594 603 471 0
-595 -603 565 0
-595 603 -565 0
-596 -603 -565 0
-596 603 565 0
-575 604 0
-576 -604 0
-577 604 0
-578 -604 0
-579 604 0
-580 -604 0
-581 -604 0
-582 604 0
-583 -604 62 0
-583 604 -62 0
-584 -604 -62 0
-584 604 62 0
-585 -604 136 0
-585 604 -136 0
-586 -604 -136 0
-586 604 136 0
-587 -604 214 0
-587 604 -214 0
-588 -604 -214 0
-588 604 214 0
-589 -604 296 0
-589 604 -296 0
-590 -604 -296 0
-590 604 296 0
-591 -604 382 0
-591 604 -382 0
-592 -604 -382 0
-592 604 382 0
-593 -604 472 0
-593 604 -472 0
-594 -604 -472 0
-594 604 472 0
-595 -604 566 0
-595 604 -566 0
-596 -604 -566 0
-596 604 566 0
-575 -605 0
-576 605 0
-577 -605 0
-578 605 0
-579 -605 0
-580 605 0
-581 605 0
-582 -605 0
-583 -605 63 0
-583 605 -63 0
-584 -605 -63 0
-584 605 63 0
-585 -605 137 0
-585 605 -137 0
-586 -605 -137 0
-586 605 137 0
-587 -605 215 0
-587 605 -215 0
-588 -605 -215 0
-588 605 215 0
-589 -605 297 0
-589 605 -297 0
-590 -605 -297 0
-590 605 297 0
-591 -605 383 0
-591 605 -383 0
-592 -605 -383 0
-592 605 383 0
-593 -605 473 0
-593 605 -473 0
-594 -605 -473 0
-594 605 473 0
-595 -605 567 0
-595 605 -567 0
-596 -605 -567 0
-596 605 567 0
-575 606 0
-576 -606 0
-577 -606 0
-578 606 0
-579 -606 0
-580 606 0
-581 606 0
-582 -606 0
-583 -606 64 0
-583 606 -64 0
-584 -606 -64 0
-584 606 64 0
-585 -606 138 0
-585 606 -138 0
-586 -606 -138 0
-586 606 138 0
-587 -606 216 0
-587 606 -216 0
-588 -606 -216 0
-588 606 216 0
-589 -606 298 0
-589 606 -298 0
-590 -606 -298 0
-590 606 298 0
-591 -606 384 0
-591 606 -384 0
-592 -606 -384 0
-592 606 384 0
-593 -606 474 0
-593 606 -474 0
-594 -606 -474 0
-594 606 474 0
-595 -606 568 0
-595 606 -568 0
-596 -606 -568 0
-596 606 568 0
-575 -607 0
-576 607 0
-577 607 0
-578 -607 0
-579 -607 0
-580 607 0
-581 607 0
-582 -607 0
-583 -607 65 0
-583 607 -65 0
-584 -607 -65 0
-584 607 65 0
-585 -607 139 0
-585 607 -139 0
-586 -607 -139 0
-586 607 139 0
-587 -607 217 0
-587 607 -217 0
-588 -607 -217 0
-588 607 217 0
-589 -607 299 0
-589 607 -299 0
-590 -607 -299 0
-590 607 299 0
-591 -607 385 0
-591 607 -385 0
-592 -607 -385 0
-592 607 385 0
-593 -607 475 0
-593 607 -475 0
-594 -607 -475 0
-594 607 475 0
-595 -607 569 0
-595 607 -569 0
-596 -607 -569 0
-596 607 569 0
-575 608 0
-576 -608 0
-577 608 0
-578 -608 0
-579 -608 0
-580 608 0
-581 608 0
-582 -608 0
-583 -608 66 0
-583 608 -66 0
-584 -608 -66 0
-584 608 66 0
-585 -608 140 0
-585 608 -140 0
-586 -608 -140 0
-586 608 140 0
-587 -608 218 0
-587 608 -218 0
-588 -608 -218 0
-588 608 218 0
-589 -608 300 0
-589 608 -300 0
-590 -608 -300 0
-590 608 300 0
-591 -608 386 0
-591 608 -386 0
-592 -608 -386 0
-592 608 386 0
-593 -608 476 0
-593 608 -476 0
-594 -608 -476 0
-594 608 476 0
-595 -608 570 0
-595 608 -570 0
-596 -608 -570 0
-596 608 570 0
-575 -609 0
-576 609 0
-577 -609 0
-578 609 0
-579 609 0
-580 -609 0
-581 609 0
-582 -609 0
-583 -609 67 0
-583 609 -67 0
-584 -609 -67 0
-584 609 67 0
-585 -609 141 0
-585 609 -141 0
-586 -609 -141 0
-586 609 141 0
-587 -609 219 0
-587 609 -219 0
-588 -609 -219 0
-588 609 219 0
-589 -609 301 0
-589 609 -301 0
-590 -609 -301 0
-590 609 301 0
-591 -609 387 0
-591 609 -387 0
-592 -609 -387 0
-592 609 387 0
-593 -609 477 0
-593 609 -477 0
-594 -609 -477 0
-594 609 477 0
-595 -609 571 0
-595 609 -571 0
-596 -609 -571 0
-596 609 571 0
-575 610 0
-576 -610 0
-577 -610 0
-578 610 0
-579 610 0
-580 -610 0
-581 610 0
-582 -610 0
-583 -610 68 0
-583 610 -68 0
-584 -610 -68 0
-584 610 68 0
-585 -610 142 0
-585 610 -142 0
-586 -610 -142 0
-586 610 142 0
-587 -610 220 0
-587 610 -220 0
-588 -610 -220 0
-588 610 220 0
-589 -610 302 0
-589 610 -302 0
-590 -610 -302 0
-590 610 302 0
-591 -610 388 0
-591 610 -388 0
-592 -610 -388 0
-592 610 388 0
-593 -610 478 0
-593 610 -478 0
-594 -610 -478 0
-594 610 478 0
-595 -610 572 0
-595 610 -572 0
-596 -610 -572 0
-596 610 572 0
-575 -611 0
-576 611 0
-577 611 0
-578 -611 0
-579 611 0
-580 -611 0
-581 611 0
-582 -611 0
-583 -611 69 0
-583 611 -69 0
-584 -611 -69 0
-584 611 69 0
-585 -611 143 0
-585 611 -143 0
-586 -611 -143 0
-586 611 143 0
-587 -611 221 0
-587 611 -221 0
-588 -611 -221 0
-588 611 221 0
-589 -611 303 0
-589 611 -303 0
-590 -611 -303 0
-590 611 303 0
-591 -611 389 0
-591 611 -389 0
-592 -611 -389 0
-592 611 389 0
-593 -611 479 0
-593 611 -479 0
-594 -611 -479 0
-594 611 479 0
-595 -611 573 0
-595 611 -573 0
-596 -611 -573 0
-596 611 573 0
-575 612 0
-576 -612 0
-577 612 0
-578 -612 0
-579 612 0
-580 -612 0
-581 612 0
-582 -612 0
-583 -612 70 0
-583 612 -70 0
-584 -612 -70 0
-584 612 70 0
-585 -612 144 0
-585 612 -144 0
-586 -612 -144 0
-586 612 144 0
-587 -612 222 0
-587 612 -222 0
-588 -612 -222 0
-588 612 222 0
-589 -612 304 0
-589 612 -304 0
-590 -612 -304 0
-590 612 304 0
-591 -612 390 0
-591 612 -390 0
-592 -612 -390 0
-592 612 390 0
-593 -612 480 0
-593 612 -480 0
-594 -612 -480 0
-594 612 480 0
-595 -612 574 0
-595 612 -574 0
-596 -612 -574 0
-596 612 574 0
613 614 615 616 617 618 619 620 621 622 623 624 625 626 627 628 629 630 631 632 633 634 0
-613 -614 0
-613 -615 0
-613 -616 0
-613 -617 0
-613 -618 0
-613 -619 0
-613 -620 0
-613 -621 0
-613 -622 0
-613 -623 0
-613 -624 0
-613 -625 0
-613 -626 0
-613 -627 0
-613 -628 0
-613 -629 0
-613 -630 0
-613 -631 0
-613 -632 0
-613 -633 0
-613 -634 0
-614 -615 0
-614 -616 0
-614 -617 0
-614 -618 0
-614 -619 0
-614 -620 0
-614 -621 0
-614 -622 0
-614 -623 0
-614 -624 0
-614 -625 0
-614 -626 0
-614 -627 0
-614 -628 0
-614 -629 0
-614 -630 0
-614 -631 0
-614 -632 0
-614 -633 0
-614 -634 0
-615 -616 0
-615 -617 0
-615 -618 0
-615 -619 0
-615 -620 0
-615 -621 0
-615 -622 0
-615 -623 0
-615 -624 0
-615 -625 0
-615 -626 0
-615 -627 0
-615 -628 0
-615 -629 0
-615 -630 0
-615 -631 0
-615 -632 0
-615 -633 0
-615 -634 0
-616 -617 0
-616 -618 0
-616 -619 0
-616 -620 0
-616 -621 0
-616 -622 0
-616 -623 0
-616 -624 0
-616 -625 0
-616 -626 0
-616 -627 0
-616 -628 0
-616 -629 0
-616 -630 0
-616 -631 0
-616 -632 0
-616 -633 0
-616 -634 0
-617 -618 0
-617 -619 0
-617 -620 0
-617 -621 0
-617 -622 0
-617 -623 0
-617 -624 0
-617 -625 0
-617 -626 0
-617 -627 0
-617 -628 0
-617 -629 0
-617 -630 0
-617 -631 0
-617 -632 0
-617 -633 0
-617 -634 0
-618 -619 0
-618 -620 0
-618 -621 0
-618 -622 0
-618 -623 0
-618 -624 0
-618 -625 0
-618 -626 0
-618 -627 0
-618 -628 0
-618 -629 0
-618 -630 0
-618 -631 0
-618 -632 0
-618 -633 0
-618 -634 0
-619 -620 0
-619 -621 0
-619 -622 0
-619 -623 0
-619 -624 0
-619 -625 0
-619 -626 0
-619 -627 0
-619 -628 0
-619 -629 0
-619 -630 0
-619 -631 0
-619 -632 0
-619 -633 0
-619 -634 0
-620 -621 0
-620 -622 0
-620 -623 0
-620 -624 0
-620 -625 0
-620 -626 0
-620 -627 0
-620 -628 0
-620 -629 0
-620 -630 0
-620 -631 0
-620 -632 0
-620 -633 0
-620 -634 0
-621 -622 0
-621 -623 0
-621 -624 0
-621 -625 0
-621 -626 0
-621 -627 0
-621 -628 0
-621 -629 0
-621 -630 0
-621 -631 0
-621 -632 0
-621 -633 0
-621 -634 0
-622 -623 0
-622 -624 0
-622 -625 0
-622 -626 0
-622 -627 0
-622 -628 0
-622 -629 0
-622 -630 0
-622 -631 0
-622 -632 0
-622 -633 0
-622 -634 0
-623 -624 0
-623 -625 0
-623 -626 0
-623 -627 0
-623 -628 0
-623 -629 0
-623 -630 0
-623 -631 0
-623 -632 0
-623 -633 0
-623 -634 0
-624 -625 0
-624 -626 0
-624 -627 0
-624 -628 0
-624 -629 0
-624 -630 0
-624 -631 0
-624 -632 0
-624 -633 0
-624 -634 0
-625 -626 0
-625 -627 0
-625 -628 0
-625 -629 0
-625 -630 0
-625 -631 0
-625 -632 0
-625 -633 0
-625 -634 0
-626 -627 0
-626 -628 0
-626 -629 0
-626 -630 0
-626 -631 0
-626 -632 0
-626 -633 0
-626 -634 0
-627 -628 0
-627 -629 0
-627 -630 0
-627 -631 0
-627 -632 0
-627 -633 0
-627 -634 0
-628 -629 0
-628 -630 0
-628 -631 0
-628 -632 0
-628 -633 0
-628 -634 0
-629 -630 0
-629 -631 0
-629 -632 0
-629 -633 0
-629 -634 0
-630 -631 0
-630 -632 0
-630 -633 0
-630 -634 0
-631 -632 0
-631 -633 0
-631 -634 0
-632 -633 0
-632 -634 0
-633 -634 0
-613 -635 0
-614 635 0
-615 -635 0
-616 635 0
-617 -635 0
-618 635 0
-619 -635 0
-620 635 0
-621 -635 55 0
-621 635 -55 0
-622 -635 -55 0
-622 635 55 0
-623 -635 129 0
-623 635 -129 0
-624 -635 -129 0
-624 635 129 0
-625 -635 207 0
-625 635 -207 0
-626 -635 -207 0
-626 635 207 0
-627 -635 289 0
-627 635 -289 0
-628 -635 -289 0
-628 635 289 0
-629 -635 375 0
-629 635 -375 0
-630 -635 -375 0
-630 635 375 0
-631 -635 465 0
-631 635 -465 0
-632 -635 -465 0
-632 635 465 0
-633 -635 559 0
-633 635 -559 0
-634 -635 -559 0
-634 635 559 0
-613 636 0
-614 -636 0
-615 -636 0
-616 636 0
-617 -636 0
-618 636 0
-619 -636 0
-620 636 0
-621 -636 56 0
-621 636 -56 0
-622 -636 -56 0
-622 636 56 0
-623 -636 130 0
-623 636 -130 0
-624 -636 -130 0
-624 636 130 0
-625 -636 208 0
-625 636 -208 0
-626 -636 -208 0
-626 636 208 0
-627 -636 290 0
-627 636 -290 0
-628 -636 -290 0
-628 636 290 0
-629 -636 376 0
-629 636 -376 0
-630 -636 -376 0
-630 636 376 0
-631 -636 466 0
-631 636 -466 0
-632 -636 -466 0
-632 636 466 0
-633 -636 560 0
-633 636 -560 0
-634 -636 -560 0
-634 636 560 0
-613 -637 0
-614 637 0
-615 637 0
-616 -637 0
-617 -637 0
-618 637 0
-619 -637 0
-620 637 0
-621 -637 57 0
-621 637 -57 0
-622 -637 -57 0
-622 637 57 0
-623 -637 131 0
-623 637 -131 0
-624 -637 -131 0
-624 637 131 0
-625 -637 209 0
-625 637 -209 0
-626 -637 -209 0
-626 637 209 0
-627 -637 291 0
-627 637 -291 0
-628 -637 -291 0
-628 637 291 0
-629 -637 377 0
-629 637 -377 0
-630 -637 -377 0
-630 637 377 0
-631 -637 467 0
-631 637 -467 0
-632 -637 -467 0
-632 637 467 0
-633 -637 561 0
-633 637 -561 0
-634 -637 -561 0
-634 637 561 0
-613 638 0
-614 -638 0
-615 638 0
-616 -638 0
-617 -638 0
-618 638 0
-619 -638 0
-620 638 0
-621 -638 58 0
-621 638 -58 0
-622 -638 -58 0
-622 638 58 0
-623 -638 132 0
-623 638 -132 0
-624 -638 -132 0
-624 638 132 0
-625 -638 210 0
-625 638 -210 0
-626 -638 -210 0
-626 638 210 0
-627 -638 292 0
-627 638 -292 0
-628 -638 -292 0
-628 638 292 0
-629 -638 378 0
-629 638 -378 0
-630 -638 -378 0
-630 638 378 0
-631 -638 468 0
-631 638 -468 0
-632 -638 -468 0
-632 638 468 0
-633 -638 562 0
-633 638 -562 0
-634 -638 -562 0
-634 638 562 0
-613 -639 0
-614 639 0
-615 -639 0
-616 639 0
-617 639 0
-618 -639 0
-619 -639 0
-620 639 0
-621 -639 59 0
-621 639 -59 0
-622 -639 -59 0
-622 639 59 0
-623 -639 133 0
-623 639 -133 0
-624 -639 -133 0
-624 639 133 0
-625 -639 211 0
-625 639 -211 0
-626 -639 -211 0
-626 639 211 0
-627 -639 293 0
-627 639 -293 0
-628 -639 -293 0
-628 639 293 0
-629 -639 379 0
-629 639 -379 0
-630 -639 -379 0
-630 639 379 0
-631 -639 469 0
-631 639 -469 0
-632 -639 -469 0
-632 639 469 0
-633 -639 563 0
-633 639 -563 0
-634 -639 -563 0
-634 639 563 0
-613 640 0
-614 -640 0
-615 -640 0
-616 640 0
-617 640 0
-618 -640 0
-619 -640 0
-620 640 0
-621 -640 60 0
-621 640 -60 0
-622 -640 -60 0
-622 640 60 0
-623 -640 134 0
-623 640 -134 0
-624 -640 -134 0
-624 640 134 0
-625 -640 212 0
-625 640 -212 0
-626 -640 -212 0
-626 640 212 0
-627 -640 294 0
-627 640 -294 0
-628 -640 -294 0
-628 640 294 0
-629 -640 380 0
-629 640 -380 0
-630 -640 -380 0
-630 640 380 0
-631 -640 470 0
-631 640 -470 0
-632 -640 -470 0
-632 640 470 0
-633 -640 564 0
-633 640 -564 0
-634 -640 -564 0
-634 640 564 0
-613 -641 0
-614 641 0
-615 641 0
-616 -641 0
-617 641 0
-618 -641 0
-619 -641 0
-620 641 0
-621 -641 61 0
-621 641 -61 0
-622 -641 -61 0
-622 641 61 0
-623 -641 135 0
-623 641 -135 0
-624 -641 -135 0
-624 641 135 0
-625 -641 213 0
-625 641 -213 0
-626 -641 -213 0
-626 641 213 0
-627 -641 295 0
-627 641 -295 0
-628 -641 -295 0
-628 641 295 0
-629 -641 381 0
-629 641 -381 0
-630 -641 -381 0
-630 641 381 0
-631 -641 471 0
-631 641 -471 0
-632 -641 -471 0
-632 641 471 0
-633 -641 565 0
-633 641 -565 0
-634 -641 -565 0
-634 641 565 0
-613 642 0
-614 -642 0
-615 642 0
-616 -642 0
-617 642 0
-618 -642 0
-619 -642 0
-620 642 0
-621 -642 62 0
-621 642 -62 0
-622 -642 -62 0
-622 642 62 0
-623 -642 136 0
-623 642 -136 0
-624 -642 -136 0
-624 642 136 0
-625 -642 214 0
-625 642 -214 0
-626 -642 -214 0
-626 642 214 0
-627 -642 296 0
-627 642 -296 0
-628 -642 -296 0
-628 642 296 0
-629 -642 382 0
-629 642 -382 0
-630 -642 -382 0
-630 642 382 0
-631 -642 472 0
-631 642 -472 0
-632 -642 -472 0
-632 642 472 0
-633 -642 566 0
-633 642 -566 0
-634 -642 -566 0
-634 642 566 0
-613 -643 0
-614 643 0
-615 -643 0
-616 643 0
-617 -643 0
-618 643 0
-619 643 0
-620 -643 0
-621 -643 63 0
-621 643 -63 0
-622 -643 -63 0
-622 643 63 0
-623 -643 137 0
-623 643 -137 0
-624 -643 -137 0
-624 643 137 0
-625 -643 215 0
-625 643 -215 0
-626 -643 -215 0
-626 643 215 0
-627 -643 297 0
-627 643 -297 0
-628 -643 -297 0
-628 643 297 0
-629 -643 383 0
-629 643 -383 0
-630 -643 -383 0
-630 643 383 0
-631 -643 473 0
-631 643 -473 0
-632 -643 -473 0
-632 643 473 0
-633 -643 567 0
-633 643 -567 0
-634 -643 -567 0
-634 643 567 0
-613 644 0
-614 -644 0
-615 -644 0
-616 644 0
-617 -644 0
-618 644 0
-619 644 0
-620 -644 0
-621 -644 64 0
-621 644 -64 0
-622 -644 -64 0
-622 644 64 0
-623 -644 138 0
-623 644 -138 0
-624 -644 -138 0
-624 644 138 0
-625 -644 216 0
-625 644 -216 0
-626 -644 -216 0
-626 644 216 0
-627 -644 298 0
-627 644 -298 0
-628 -644 -298 0
-628 644 298 0
-629 -644 384 0
-629 644 -384 0
-630 -644 -384 0
-630 644 384 0
-631 -644 474 0
-631 644 -474 0
-632 -644 -474 0
-632 644 474 0
-633 -644 568 0
-633 644 -568 0
-634 -644 -568 0
-634 644 568 0
-613 -645 0
-614 645 0
-615 645 0
-616 -645 0
-617 -645 0
-618 645 0
-619 645 0
-620 -645 0
-621 -645 65 0
-621 645 -65 0
-622 -645 -65 0
-622 645 65 0
-623 -645 139 0
-623 645 -139 0
-624 -645 -139 0
-624 645 139 0
-625 -645 217 0
-625 645 -217 0
-626 -645 -217 0
-626 645 217 0
-627 -645 299 0
-627 645 -299 0
-628 -645 -299 0
-628 645 299 0
-629 -645 385 0
-629 645 -385 0
-630 -645 -385 0
-630 645 385 0
-631 -645 475 0
-631 645 -475 0
-632 -645 -475 0
-632 645 475 0
-633 -645 569 0
-633 645 -569 0
-634 -645 -569 0
-634 645 569 0
-613 646 0
-614 -646 0
-615 646 0
-616 -646 0
-617 -646 0
-618 646 0
-619 646 0
-620 -646 0
-621 -646 66 0
-621 646 -66 0
-622 -646 -66 0
-622 646 66 0
-623 -646 140 0
-623 646 -140 0
-624 -646 -140 0
-624 646 140 0
-625 -646 218 0
-625 646 -218 0
-626 -646 -218 0
-626 646 218 0
-627 -646 300 0
-627 646 -300 0
-628 -646 -300 0
-628 646 300 0
-629 -646 386 0
-629 646 -386 0
-630 -646 -386 0
-630 646 386 0
-631 -646 476 0
-631 646 -476 0
-632 -646 -476 0
-632 646 476 0
-633 -646 570 0
-633 646 -570 0
-634 -646 -570 0
-634 646 570 0
-613 -647 0
-614 647 0
-615 -647 0
-616 647 0
-617 647 0
-618 -647 0
-619 647 0
-620 -647 0
-621 -647 67 0
-621 647 -67 0
-622 -647 -67 0
-622 647 67 0
-623 -647 141 0
-623 647 -141 0
-624 -647 -141 0
-624 647 141 0
-625 -647 219 0
-625 647 -219 0
-626 -647 -219 0
-626 647 219 0
-627 -647 301 0
-627 647 -301 0
-628 -647 -301 0
-628 647 301 0
-629 -647 387 0
-629 647 -387 0
-630 -647 -387 0
-630 647 387 0
-631 -647 477 0
-631 647 -477 0
-632 -647 -477 0
-632 647 477 0
-633 -647 571 0
-633 647 -571 0
-634 -647 -571 0
-634 647 571 0
-613 648 0
-614 -648 0
-615 -648 0
-616 648 0
-617 648 0
-618 -648 0
-619 648 0
-620 -648 0
-621 -648 68 0
-621 648 -68 0
-622 -648 -68 0
-622 648 68 0
-623 -648 142 0
-623 648 -142 0
-624 -648 -142 0
-624 648 142 0
-625 -648 220 0
-625 648 -220 0
-626 -648 -220 0
-626 648 220 0
-627 -648 302 0
-627 648 -302 0
-628 -648 -302 0
-628 648 302 0
-629 -648 388 0
-629 648 -388 0
-630 -648 -388 0
-630 648 388 0
-631 -648 478 0
-631 648 -478 0
-632 -648 -478 0
-632 648 478 0
-633 -648 572 0
-633 648 -572 0
-634 -648 -572 0
-634 648 572 0
-613 -649 0
-614 649 0
-615 649 0
-616 -649 0
-617 649 0
-618 -649 0
-619 649 0
-620 -649 0
-621 -649 69 0
-621 649 -69 0
-622 -649 -69 0
-622 649 69 0
-623 -649 143 0
-623 649 -143 0
-624 -649 -143 0
-624 649 143 0
-625 -649 221 0
-625 649 -221 0
-626 -649 -221 0
-626 649 221 0
-627 -649 303 0
-627 649 -303 0
-628 -649 -303 0
-628 649 303 0
-629 -649 389 0
-629 649 -389 0
-630 -649 -389 0
-630 649 389 0
-631 -649 479 0
-631 649 -479 0
-632 -649 -479 0
-632 649 479 0
-633 -649 573 0
-633 649 -573 0
-634 -649 -573 0
-634 649 573 0
-613 650 0
-614 -650 0
-615 650 0
-616 -650 0
-617 650 0
-618 -650 0
-619 650 0
-620 -650 0
-621 -650 70 0
-621 650 -70 0
-622 -650 -70 0
-622 650 70 0
-623 -650 144 0
-623 650 -144 0
-624 -650 -144 0
-624 650 144 0
-625 -650 222 0
-625 650 -222 0
-626 -650 -222 0
-626 650 222 0
-627 -650 304 0
-627 650 -304 0
-628 -650 -304 0
-628 650 304 0
-629 -650 390 0
-629 650 -390 0
-630 -650 -390 0
-630 650 390 0
-631 -650 480 0
-631 650 -480 0
-632 -650 -480 0
-632 650 480 0
-633 -650 574 0
-633 650 -574 0
-634 -650 -574 0
-634 650 574 0
651 652 653 654 655 656 657 658 659 660 661 662 663 664 665 666 667 668 669 670 671 672 0
-651 -652 0
-651 -653 0
-651 -654 0
-651 -655 0
-651 -656 0
-651 -657 0
-651 -658 0
-651 -659 0
-651 -660 0
-651 -661 0
-651 -662 0
-651 -663 0
-651 -664 0
-651 -665 0
-651 -666 0
-651 -667 0
-651 -668 0
-651 -669 0
-651 -670 0
-651 -671 0
-651 -672 0
-652 -653 0
-652 -654 0
-652 -655 0
-652 -656 0
-652 -657 0
-652 -658 0
-652 -659 0
-652 -660 0
-652 -661 0
-652 -662 0
-652 -663 0
-652 -664 0
-652 -665 0
-652 -666 0
-652 -667 0
-652 -668 0
-652 -669 0
-652 -670 0
-652 -671 0
-652 -672 0
-653 -654 0
-653 -655 0
-653 -656 0
-653 -657 0
-653 -658 0
-653 -659 0
-653 -660 0
-653 -661 0
-653 -662 0
-653 -663 0
-653 -664 0
-653 -665 0
-653 -666 0
-653 -667 0
-653 -668 0
-653 -669 0
-653 -670 0
-653 -671 0
-653 -672 0
-654 -655 0
-654 -656 0
-654 -657 0
-654 -658 0
-654 -659 0
-654 -660 0
-654 -661 0
-654 -662 0
-654 -663 0
-654 -664 0
-654 -665 0
-654 -666 0
-654 -667 0
-654 -668 0
-654 -669 0
-654 -670 0
-654 -671 0
-654 -672 0
-655 -656 0
-655 -657 0
-655 -658 0
-655 -659 0
-655 -660 0
-655 -661 0
-655 -662 0
-655 -663 0
-655 -664 0
-655 -665 0
-655 -666 0
-655 -667 0
-655 -668 0
-655 -669 0
-655 -670 0
-655 -671 0
-655 -672 0
-656 -657 0
-656 -658 0
-656 -659 0
-656 -660 0
-656 -661 0
-656 -662 0
-656 -663 0
-656 -664 0
-656 -665 0
-656 -666 0
-656 -667 0
-656 -668 0
-656 -669 0
-656 -670 0
-656 -671 0
-656 -672 0
-657 -658 0
-657 -659 0
-657 -660 0
-657 -661 0
-657 -662 0
-657 -663 0
-657 -664 0
-657 -665 0
-657 -666 0
-657 -667 0
-657 -668 0
-657 -669 0
-657 -670 0
-657 -671 0
-657 -672 0
-658 -659 0
-658 -660 0
-658 -661 0
-658 -662 0
-658 -663 0
-658 -664 0
-658 -665 0
-658 -666 0
-658 -667 0
-658 -668 0
-658 -669 0
-658 -670 0
-658 -671 0
-658 -672 0
-659 -660 0
-659 -661 0
-659 -662 0
-659 -663 0
-659 -664 0
-659 -665 0
-659 -666 0
-659 -667 0
-659 -668 0
-659 -669 0
-659 -670 0
-659 -671 0
-659 -672 0
-660 -661 0
-660 -662 0
-660 -663 0
-660 -664 0
-660 -665 0
-660 -666 0
-660 -667 0
-660 -668 0
-660 -669 0
-660 -670 0
-660 -671 0
-660 -672 0
-661 -662 0
-661 -663 0
-661 -664 0
-661 -665 0
-661 -666 0
-661 -667 0
-661 -668 0
-661 -669 0
-661 -670 0
-661 -671 0
-661 -672 0
-662 -663 0
-662 -664 0
-662 -665 0
-662 -666 0
-662 -667 0
-662 -668 0
-662 -669 0
-662 -670 0
-662 -671 0
-662 -672 0
-663 -664 0
-663 -665 0
-663 -666 0
-663 -667 0
-663 -668 0
-663 -669 0
-663 -670 0
-663 -671 0
-663 -672 0
-664 -665 0
-664 -666 0
-664 -667 0
-664 -668 0
-664 -669 0
-664 -670 0
-664 -671 0
-664 -672 0
-665 -666 0
-665 -667 0
-665 -668 0
-665 -669 0
-665 -670 0
-665 -671 0
-665 -672 0
-666 -667 0
-666 -668 0
-666 -669 0
-666 -670 0
-666 -671 0
-666 -672 0
-667 -668 0
-667 -669 0
-667 -670 0
-667 -671 0
-667 -672 0
-668 -669 0
-668 -670 0
-668 -671 0
-668 -672 0
-669 -670 0
-669 -671 0
-669 -672 0
-670 -671 0
-670 -672 0
-671 -672 0
-651 -673 0
-652 673 0
-653 -673 0
-654 673 0
-655 -673 0
-656 673 0
-657 -673 0
-658 673 0
-659 -673 55 0
-659 673 -55 0
-660 -673 -55 0
-660 673 55 0
-661 -673 129 0
-661 673 -129 0
-662 -673 -129 0
-662 673 129 0
-663 -673 207 0
-663 673 -207 0
-664 -673 -207 0
-664 673 207 0
-665 -673 289 0
-665 673 -289 0
-666 -673 -289 0
-666 673 289 0
-667 -673 375 0
-667 673 -375 0
-668 -673 -375 0
-668 673 375 0
-669 -673 465 0
-669 673 -465 0
-670 -673 -465 0
-670 673 465 0
-671 -673 559 0
-671 673 -559 0
-672 -673 -559 0
-672 673 559 0
-651 674 0
-652 -674 0
-653 -674 0
-654 674 0
-655 -674 0
-656 674 0
-657 -674 0
-658 674 0
-659 -674 56 0
-659 674 -56 0
-660 -674 -56 0
-660 674 56 0
-661 -674 130 0
-661 674 -130 0
-662 -674 -130 0
-662 674 130 0
-663 -674 208 0
-663 674 -208 0
-664 -674 -208 0
-664 674 208 0
-665 -674 290 0
-665 674 -290 0
-666 -674 -290 0
-666 674 290 0
-667 -674 376 0
-667 674 -376 0
-668 -674 -376 0
-668 674 376 0
-669 -674 466 0
-669 674 -466 0
-670 -674 -466 0
-670 674 466 0
-671 -674 560 0
-671 674 -560 0
-672 -674 -560 0
-672 674 560 0
-651 -675 0
-652 675 0
-653 675 0
-654 -675 0
-655 -675 0
-656 675 0
-657 -675 0
-658 675 0
-659 -675 57 0
-659 675 -57 0
-660 -675 -57 0
-660 675 57 0
-661 -675 131 0
-661 675 -131 0
-662 -675 -131 0
-662 675 131 0
-663 -675 209 0
-663 675 -209 0
-664 -675 -209 0
-664 675 209 0
-665 -675 291 0
-665 675 -291 0
-666 -675 -291 0
-666 675 291 0
-667 -675 377 0
-667 675 -377 0
-668 -675 -377 0
-668 675 377 0
-669 -675 467 0
-669 675 -467 0
-670 -675 -467 0
-670 675 467 0
-671 -675 561 0
-671 675 -561 0
-672 -675 -561 0
-672 675 561 0
-651 676 0
-652 -676 0
-653 676 0
-654 -676 0
-655 -676 0
-656 676 0
-657 -676 0
-658 676 0
-659 -676 58 0
-659 676 -58 0
-660 -676 -58 0
-660 676 58 0
-661 -676 132 0
-661 676 -132 0
-662 -676 -132 0
-662 676 132 0
-663 -676 210 0
-663 676 -210 0
-664 -676 -210 0
-664 676 210 0
-665 -676 292 0
-665 676 -292 0
-666 -676 -292 0
-666 676 292 0
-667 -676 378 0
-667 676 -378 0
-668 -676 -378 0
-668 676 378 0
-669 -676 468 0
-669 676 -468 0
-670 -676 -468 0
-670 676 468 0
-671 -676 562 0
-671 676 -562 0
-672 -676 -562 0
-672 676 562 0
-651 -677 0
-652 677 0
-653 -677 0
-654 677 0
-655 677 0
-656 -677 0
-657 -677 0
-658 677 0
-659 -677 59 0
-659 677 -59 0
-660 -677 -59 0
-660 677 59 0
-661 -677 133 0
-661 677 -133 0
-662 -677 -133 0
-662 677 133 0
-663 -677 211 0
-663 677 -211 0
-664 -677 -211 0
-664 677 211 0
-665 -677 293 0
-665 677 -293 0
-666 -677 -293 0
-666 677 293 0
-667 -677 379 0
-667 677 -379 0
-668 -677 -379 0
-668 677 379 0
-669 -677 469 0
-669 677 -469 0
-670 -677 -469 0
-670 677 469 0
-671 -677 563 0
-671 677 -563 0
-672 -677 -563 0
-672 677 563 0
-651 678 0
-652 -678 0
-653 -678 0
-654 678 0
-655 678 0
-656 -678 0
-657 -678 0
-658 678 0
-659 -678 60 0
-659 678 -60 0
-660 -678 -60 0
-660 678 60 0
-661 -678 134 0
-661 678 -134 0
-662 -678 -134 0
-662 678 134 0
-663 -678 212 0
-663 678 -212 0
-664 -678 -212 0
-664 678 212 0
-665 -678 294 0
-665 678 -294 0
-666 -678 -294 0
-666 678 294 0
-667 -678 380 0
-667 678 -380 0
-668 -678 -380 0
-668 678 380 0
-669 -678 470 0
-669 678 -470 0
-670 -678 -470 0
-670 678 470 0
-671 -678 564 0
-671 678 -564 0
-672 -678 -564 0
-672 678 564 0
-651 -679 0
-652 679 0
-653 679 0
-654 -679 0
-655 679 0
-656 -679 0
-657 -679 0
-658 679 0
-659 -679 61 0
-659 679 -61 0
-660 -679 -61 0
-660 679 61 0
-661 -679 135 0
-661 679 -135 0
-662 -679 -135 0
-662 679 135 0
-663 -679 213 0
-663 679 -213 0
-664 -679 -213 0
-664 679 213 0
-665 -679 295 0
-665 679 -295 0
-666 -679 -295 0
-666 679 295 0
-667 -679 381 0
-667 679 -381 0
-668 -679 -381 0
-668 679 381 0
-669 -679 471 0
-669 679 -471 0
-670 -679 -471 0
-670 679 471 0
-671 -679 565 0
-671 679 -565 0
-672 -679 -565 0
-672 679 565 0
-651 680 0
-652 -680 0
-653 680 0
-654 -680 0
-655 680 0
-656 -680 0
-657 -680 0
-658 680 0
-659 -680 62 0
-659 680 -62 0
-660 -680 -62 0
-660 680 62 0
-661 -680 136 0
-661 680 -136 0
-662 -680 -136 0
-662 680 136 0
-663 -680 214 0
-663 680 -214 0
-664 -680 -214 0
-664 680 214 0
-665 -680 296 0
-665 680 -296 0
-666 -680 -296 0
-666 680 296 0
-667 -680 382 0
-667 680 -382 0
-668 -680 -382 0
-668 680 382 0
-669 -680 472 0
-669 680 -472 0
-670 -680 -472 0
-670 680 472 0
-671 -680 566 0
-671 680 -566 0
-672 -680 -566 0
-672 680 566 0
-651 -681 0
-652 681 0
-653 -681 0
-654 681 0
-655 -681 0
-656 681 0
-657 681 0
-658 -681 0
-659 -681 63 0
-659 681 -63 0
-660 -681 -63 0
-660 681 63 0
-661 -681 137 0
-661 681 -137 0
-662 -681 -137 0
-662 681 137 0
-663 -681 215 0
-663 681 -215 0
-664 -681 -215 0
-664 681 215 0
-665 -681 297 0
-665 681 -297 0
-666 -681 -297 0
-666 681 297 0
-667 -681 383 0
-667 681 -383 0
-668 -681 -383 0
-668 681 383 0
-669 -681 473 0
-669 681 -473 0
-670 -681 -473 0
-670 681 473 0
-671 -681 567 0
-671 681 -567 0
-672 -681 -567 0
-672 681 567 0
-651 682 0
-652 -682 0
-653 -682 0
-654 682 0
-655 -682 0
-656 682 0
-657 682 0
-658 -682 0
-659 -682 64 0
-659 682 -64 0
-660 -682 -64 0
-660 682 64 0
-661 -682 138 0
-661 682 -138 0
-662 -682 -138 0
-662 682 138 0
-663 -682 216 0
-663 682 -216 0
-664 -682 -216 0
-664 682 216 0
-665 -682 298 0
-665 682 -298 0
-666 -682 -298 0
-666 682 298 0
-667 -682 384 0
-667 682 -384 0
-668 -682 -384 0
-668 682 384 0
-669 -682 474 0
-669 682 -474 0
-670 -682 -474 0
-670 682 474 0
-671 -682 568 0
-671 682 -568 0
-672 -682 -568 0
-672 682 568 0
-651 -683 0
-652 683 0
-653 683 0
-654 -683 0
-655 -683 0
-656 683 0
-657 683 0
-658 -683 0
-659 -683 65 0
-659 683 -65 0
-660 -683 -65 0
-660 683 65 0
-661 -683 139 0
-661 683 -139 0
-662 -683 -139 0
-662 683 139 0
-663 -683 217 0
-663 683 -217 0
-664 -683 -217 0
-664 683 217 0
-665 -683 299 0
-665 683 -299 0
-666 -683 -299 0
-666 683 299 0
-667 -683 385 0
-667 683 -385 0
-668 -683 -385 0
-668 683 385 0
-669 -683 475 0
-669 683 -475 0
-670 -683 -475 0
-670 683 475 0
-671 -683 569 0
-671 683 -569 0
-672 -683 -569 0
-672 683 569 0
-651 684 0
-652 -684 0
-653 684 0
-654 -684 0
-655 -684 0
-656 684 0
-657 684 0
-658 -684 0
-659 -684 66 0
-659 684 -66 0
-660 -684 -66 0
-660 684 66 0
-661 -684 140 0
-661 684 -140 0
-662 -684 -140 0
-662 684 140 0
-663 -684 218 0
-663 684 -218 0
-664 -684 -218 0
-664 684 218 0
-665 -684 300 0
-665 684 -300 0
-666 -684 -300 0
-666 684 300 0
-667 -684 386 0
-667 684 -386 0
-668 -684 -386 0
-668 684 386 0
-669 -684 476 0
-669 684 -476 0
-670 -684 -476 0
-670 684 476 0
-671 -684 570 0
-671 684 -570 0
-672 -684 -570 0
-672 684 570 0
-651 -685 0
-652 685 0
-653 -685 0
-654 685 0
-655 685 0
-656 -685 0
-657 685 0
-658 -685 0
-659 -685 67 0
-659 685 -67 0
-660 -685 -67 0
-660 685 67 0
-661 -685 141 0
-661 685 -141 0
-662 -685 -141 0
-662 685 141 0
-663 -685 219 0
-663 685 -219 0
-664 -685 -219 0
-664 685 219 0
-665 -685 301 0
-665 685 -301 0
-666 -685 -301 0
-666 685 301 0
-667 -685 387 0
-667 685 -387 0
-668 -685 -387 0
-668 685 387 0
-669 -685 477 0
-669 685 -477 0
-670 -685 -477 0
-670 685 477 0
-671 -685 571 0
-671 685 -571 0
-672 -685 -571 0
-672 685 571 0
-651 686 0
-652 -686 0
-653 -686 0
-654 686 0
-655 686 0
-656 -686 0
-657 686 0
-658 -686 0
-659 -686 68 0
-659 686 -68 0
-660 -686 -68 0
-660 686 68 0
-661 -686 142 0
-661 686 -142 0
-662 -686 -142 0
-662 686 142 0
-663 -686 220 0
-663 686 -220 0
-664 -686 -220 0
-664 686 220 0
-665 -686 302 0
-665 686 -302 0
-666 -686 -302 0
-666 686 302 0
-667 -686 388 0
-667 686 -388 0
-668 -686 -388 0
-668 686 388 0
-669 -686 478 0
-669 686 -478 0
-670 -686 -478 0
-670 686 478 0
-671 -686 572 0
-671 686 -572 0
-672 -686 -572 0
-672 686 572 0
-651 -687 0
-652 687 0
-653 687 0
-654 -687 0
-655 687 0
-656 -687 0
-657 687 0
-658 -687 0
-659 -687 69 0
-659 687 -69 0
-660 -687 -69 0
-660 687 69 0
-661 -687 143 0
-661 687 -143 0
-662 -687 -143 0
-662 687 143 0
-663 -687 221 0
-663 687 -221 0
-664 -687 -221 0
-664 687 221 0
-665 -687 303 0
-665 687 -303 0
-666 -687 -303 0
-666 687 303 0
-667 -687 389 0
-667 687 -389 0
-668 -687 -389 0
-668 687 389 0
-669 -687 479 0
-669 687 -479 0
-670 -687 -479 0
-670 687 479 0
-671 -687 573 0
-671 687 -573 0
-672 -687 -573 0
-672 687 573 0
-651 688 0
-652 -688 0
-653 688 0
-654 -688 0
-655 688 0
-656 -688 0
-657 688 0
-658 -688 0
-659 -688 70 0
-659 688 -70 0
-660 -688 -70 0
-660 688 70 0
-661 -688 144 0
-661 688 -144 0
-662 -688 -144 0
-662 688 144 0
-663 -688 222 0
-663 688 -222 0
-664 -688 -222 0
-664 688 222 0
-665 -688 304 0
-665 688 -304 0
-666 -688 -304 0
-666 688 304 0
-667 -688 390 0
-667 688 -390 0
-668 -688 -390 0
-668 688 390 0
-669 -688 480 0
-669 688 -480 0
-670 -688 -480 0
-670 688 480 0
-671 -688 574 0
-671 688 -574 0
-672 -688 -574 0
-672 688 574 0
689 690 691 692 693 694 695 696 697 698 699 700 701 702 703 704 705 706 707 708 709 710 0
-689 -690 0
-689 -691 0
-689 -692 0
-689 -693 0
-689 -694 0
-689 -695 0
-689 -696 0
-689 -697 0
-689 -698 0
-689 -699 0
-689 -700 0
-689 -701 0
-689 -702 0
-689 -703 0
-689 -704 0
-689 -705 0
-689 -706 0
-689 -707 0
-689 -708 0
-689 -709 0
-689 -710 0
-690 -691 0
-690 -692 0
-690 -693 0
-690 -694 0
-690 -695 0
-690 -696 0
-690 -697 0
-690 -698 0
-690 -699 0
-690 -700 0
-690 -701 0
-690 -702 0
-690 -703 0
-690 -704 0
-690 -705 0
-690 -706 0
-690 -707 0
-690 -708 0
-690 -709 0
-690 -710 0
-691 -692 0
-691 -693 0
-691 -694 0
-691 -695 0
-691 -696 0
-691 -697 0
-691 -698 0
-691 -699 0
-691 -700 0
-691 -701 0
-691 -702 0
-691 -703 0
-691 -704 0
-691 -705 0
-691 -706 0
-691 -707 0
-691 -708 0
-691 -709 0
-691 -710 0
-692 -693 0
-692 -694 0
-692 -695 0
-692 -696 0
-692 -697 0
-692 -698 0
-692 -699 0
-692 -700 0
-692 -701 0
-692 -702 0
-692 -703 0
-692 -704 0
-692 -705 0
-692 -706 0
-692 -707 0
-692 -708 0
-692 -709 0
-692 -710 0
-693 -694 0
-693 -695 0
-693 -696 0
-693 -697 0
-693 -698 0
-693 -699 0
-693 -700 0
-693 -701 0
-693 -702 0
-693 -703 0
-693 -704 0
-693 -705 0
-693 -706 0
-693 -707 0
-693 -708 0
-693 -709 0
-693 -710 0
-694 -695 0
-694 -696 0
-694 -697 0
-694 -698 0
-694 -699 0
-694 -700 0
-694 -701 0
-694 -702 0
-694 -703 0
-694 -704 0
-694 -705 0
-694 -706 0
-694 -707 0
-694 -708 0
-694 -709 0
-694 -710 0
-695 -696 0
-695 -697 0
-695 -698 0
-695 -699 0
-695 -700 0
-695 -701 0
-695 -702 0
-695 -703 0
-695 -704 0
-695 -705 0
-695 -706 0
-695 -707 0
-695 -708 0
-695 -709 0
-695 -710 0
-696 -697 0
-696 -698 0
-696 -699 0
-696 -700 0
-696 -701 0
-696 -702 0
-696 -703 0
-696 -704 0
-696 -705 0
-696 -706 0
-696 -707 0
-696 -708 0
-696 -709 0
-696 -710 0
-697 -698 0
-697 -699 0
-697 -700 0
-697 -701 0
-697 -702 0
-697 -703 0
-697 -704 0
-697 -705 0
-697 -706 0
-697 -707 0
-697 -708 0
-697 -709 0
-697 -710 0
-698 -699 0
-698 -700 0
-698 -701 0
-698 -702 0
-698 -703 0
-698 -704 0
-698 -705 0
-698 -706 0
-698 -707 0
-698 -708 0
-698 -709 0
-698 -710 0
-699 -700 0
-699 -701 0
-699 -702 0
-699 -703 0
-699 -704 0
-699 -705 0
-699 -706 0
-699 -707 0
-699 -708 0
-699 -709 0
-699 -710 0
-700 -701 0
-700 -702 0
-700 -703 0
-700 -704 0
-700 -705 0
-700 -706 0
-700 -707 0
-700 -708 0
-700 -709 0
-700 -710 0
-701 -702 0
-701 -703 0
-701 -704 0
-701 -705 0
-701 -706 0
-701 -707 0
-701 -708 0
-701 -709 0
-701 -710 0
-702 -703 0
-702 -704 0
-702 -705 0
-702 -706 0
-702 -707 0
-702 -708 0
-702 -709 0
-702 -710 0
-703 -704 0
-703 -705 0
-703 -706 0
-703 -707 0
-703 -708 0
-703 -709 0
-703 -710 0
-704 -705 0
-704 -706 0
-704 -707 0
-704 -708 0
-704 -709 0
-704 -710 0
-705 -706 0
-705 -707 0
-705 -708 0
-705 -709 0
-705 -710 0
-706 -707 0
-706 -708 0
-706 -709 0
-706 -710 0
-707 -708 0
-707 -709 0
-707 -710 0
-708 -709 0
-708 -710 0
-709 -710 0
-689 -711 0
-690 711 0
-691 -711 0
-692 711 0
-693 -711 0
-694 711 0
-695 -711 0
-696 711 0
-697 -711 55 0
-697 711 -55 0
-698 -711 -55 0
-698 711 55 0
-699 -711 129 0
-699 711 -129 0
-700 -711 -129 0
-700 711 129 0
-701 -711 207 0
-701 711 -207 0
-702 -711 -207 0
-702 711 207 0
-703 -711 289 0
-703 711 -289 0
-704 -711 -289 0
-704 711 289 0
-705 -711 375 0
-705 711 -375 0
-706 -711 -375 0
-706 711 375 0
-707 -711 465 0
-707 711 -465 0
-708 -711 -465 0
-708 711 465 0
-709 -711 559 0
-709 711 -559 0
-710 -711 -559 0
-710 711 559 0
-689 712 0
-690 -712 0
-691 -712 0
-692 712 0
-693 -712 0
-694 712 0
-695 -712 0
-696 712 0
-697 -712 56 0
-697 712 -56 0
-698 -712 -56 0
-698 712 56 0
-699 -712 130 0
-699 712 -130 0
-700 -712 -130 0
-700 712 130 0
-701 -712 208 0
-701 712 -208 0
-702 -712 -208 0
-702 712 208 0
-703 -712 290 0
-703 712 -290 0
-704 -712 -290 0
-704 712 290 0
-705 -712 376 0
-705 712 -376 0
-706 -712 -376 0
-706 712 376 0
-707 -712 466 0
-707 712 -466 0
-708 -712 -466 0
-708 712 466 0
-709 -712 560 0
-709 712 -560 0
-710 -712 -560 0
-710 712 560 0
-689 -713 0
-690 713 0
-691 713 0
-692 -713 0
-693 -713 0
-694 713 0
-695 -713 0
-696 713 0
-697 -713 57 0
-697 713 -57 0
-698 -713 -57 0
-698 713 57 0
-699 -713 131 0
-699 713 -131 0
-700 -713 -131 0
-700 713 131 0
-701 -713 209 0
-701 713 -209 0
-702 -713 -209 0
-702 713 209 0
-703 -713 291 0
-703 713 -291 0
-704 -713 -291 0
-704 713 291 0
-705 -713 377 0
-705 713 -377 0
-706 -713 -377 0
-706 713 377 0
-707 -713 467 0
-707 713 -467 0
-708 -713 -467 0
-708 713 467 0
-709 -713 561 0
-709 713 -561 0
-710 -713 -561 0
-710 713 561 0
-689 714 0
-690 -714 0
-691 714 0
-692 -714 0
-693 -714 0
-694 714 0
-695 -714 0
-696 714 0
-697 -714 58 0
-697 714 -58 0
-698 -714 -58 0
-698 714 58 0
-699 -714 132 0
-699 714 -132 0
-700 -714 -132 0
-700 714 132 0
-701 -714 210 0
-701 714 -210 0
-702 -714 -210 0
-702 714 210 0
-703 -714 292 0
-703 714 -292 0
-704 -714 -292 0
-704 714 292 0
-705 -714 378 0
-705 714 -378 0
-706 -714 -378 0
-706 714 378 0
-707 -714 468 0
-707 714 -468 0
-708 -714 -468 0
-708 714 468 0
-709 -714 562 0
-709 714 -562 0
-710 -714 -562 0
-710 714 562 0
-689 -715 0
-690 715 0
-691 -715 0
-692 715 0
-693 715 0
-694 -715 0
-695 -715 0
-696 715 0
-697 -715 59 0
-697 715 -59 0
-698 -715 -59 0
-698 715 59 0
-699 -715 133 0
-699 715 -133 0
-700 -715 -133 0
-700 715 133 0
-701 -715 211 0
-701 715 -211 0
-702 -715 -211 0
-702 715 211 0
-703 -715 293 0
-703 715 -293 0
-704 -715 -293 0
-704 715 293 0
-705 -715 379 0
-705 715 -379 0
-706 -715 -379 0
-706 715 379 0
-707 -715 469 0
-707 715 -469 0
-708 -715 -469 0
-708 715 469 0
-709 -715 563 0
-709 715 -563 0
-710 -715 -563 0
-710 715 563 0
-689 716 0
-690 -716 0
-691 -716 0
-692 716 0
-693 716 0
-694 -716 0
-695 -716 0
-696 716 0
-697 -716 60 0
-697 716 -60 0
-698 -716 -60 0
-698 716 60 0
-699 -716 134 0
-699 716 -134 0
-700 -716 -134 0
-700 716 134 0
-701 -716 212 0
-701 716 -212 0
-702 -716 -212 0
-702 716 212 0
-703 -716 294 0
-703 716 -294 0
-704 -716 -294 0
-704 716 294 0
-705 -716 380 0
-705 716 -380 0
-706 -716 -380 0
-706 716 380 0
-707 -716 470 0
-707 716 -470 0
-708 -716 -470 0
-708 716 470 0
-709 -716 564 0
-709 716 -564 0
-710 -716 -564 0
-710 716 564 0
-689 -717 0
-690 717 0
-691 717 0
-692 -717 0
-693 717 0
-694 -717 0
-695 -717 0
-696 717 0
-697 -717 61 0
-697 717 -61 0
-698 -717 -61 0
-698 717 61 0
-699 -717 135 0
-699 717 -135 0
-700 -717 -135 0
-700 717 135 0
-701 -717 213 0
-701 717 -213 0
-702 -717 -213 0
-702 717 213 0
-703 -717 295 0
-703 717 -295 0
-704 -717 -295 0
-704 717 295 0
-705 -717 381 0
-705 717 -381 0
-706 -717 -381 0
-706 717 381 0
-707 -717 471 0
-707 717 -471 0
-708 -717 -471 0
-708 717 471 0
-709 -717 565 0
-709 717 -565 0
-710 -717 -565 0
-710 717 565 0
-689 718 0
-690 -718 0
-691 718 0
-692 -718 0
-693 718 0
-694 -718 0
-695 -718 0
-696 718 0
-697 -718 62 0
-697 718 -62 0
-698 -718 -62 0
-698 718 62 0
-699 -718 136 0
-699 718 -136 0
-700 -718 -136 0
-700 718 136 0
-701 -718 214 0
-701 718 -214 0
-702 -718 -214 0
-702 718 214 0
-703 -718 296 0
-703 718 -296 0
-704 -718 -296 0
-704 718 296 0
-705 -718 382 0
-705 718 -382 0
-706 -718 -382 0
-706 718 382 0
-707 -718 472 0
-707 718 -472 0
-708 -718 -472 0
-708 718 472 0
-709 -718 566 0
-709 718 -566 0
-710 -718 -566 0
-710 718 566 0
-689 -719 0
-690 719 0
-691 -719 0
-692 719 0
-693 -719 0
-694 719 0
-695 719 0
-696 -719 0
-697 -719 63 0
-697 719 -63 0
-698 -719 -63 0
-698 719 63 0
-699 -719 137 0
-699 719 -137 0
-700 -719 -137 0
-700 719 137 0
-701 -719 215 0
-701 719 -215 0
-702 -719 -215 0
-702 719 215 0
-703 -719 297 0
-703 719 -297 0
-704 -719 -297 0
-704 719 297 0
-705 -719 383 0
-705 719 -383 0
-706 -719 -383 0
-706 719 383 0
-707 -719 473 0
-707 719 -473 0
-708 -719 -473 0
-708 719 473 0
-709 -719 567 0
-709 719 -567 0
-710 -719 -567 0
-710 719 567 0
-689 720 0
-690 -720 0
-691 -720 0
-692 720 0
-693 -720 0
-694 720 0
-695 720 0
-696 -720 0
-697 -720 64 0
-697 720 -64 0
-698 -720 -64 0
-698 720 64 0
-699 -720 138 0
-699 720 -138 0
-700 -720 -138 0
-700 720 138 0
-701 -720 216 0
-701 720 -216 0
-702 -720 -216 0
-702 720 216 0
-703 -720 298 0
-703 720 -298 0
-704 -720 -298 0
-704 720 298 0
-705 -720 384 0
-705 720 -384 0
-706 -720 -384 0
-706 720 384 0
-707 -720 474 0
-707 720 -474 0
-708 -720 -474 0
-708 720 474 0
-709 -720 568 0
-709 720 -568 0
-710 -720 -568 0
-710 720 568 0
-689 -721 0
-690 721 0
-691 721 0
-692 -721 0
-693 -721 0
-694 721 0
-695 721 0
-696 -721 0
-697 -721 65 0
-697 721 -65 0
-698 -721 -65 0
-698 721 65 0
-699 -721 139 0
-699 721 -139 0
-700 -721 -139 0
-700 721 139 0
-701 -721 217 0
-701 721 -217 0
-702 -721 -217 0
-702 721 217 0
-703 -721 299 0
-703 721 -299 0
-704 -721 -299 0
-704 721 299 0
-705 -721 385 0
-705 721 -385 0
-706 -721 -385 0
-706 721 385 0
-707 -721 475 0
-707 721 -475 0
-708 -721 -475 0
-708 721 475 0
-709 -721 569 0
-709 721 -569 0
-710 -721 -569 0
-710 721 569 0
-689 722 0
-690 -722 0
-691 722 0
-692 -722 0
-693 -722 0
-694 722 0
-695 722 0
-696 -722 0
-697 -722 66 0
-697 722 -66 0
-698 -722 -66 0
-698 722 66 0
-699 -722 140 0
-699 722 -140 0
-700 -722 -140 0
-700 722 140 0
-701 -722 218 0
-701 722 -218 0
-702 -722 -218 0
-702 722 218 0
-703 -722 300 0
-703 722 -300 0
-704 -722 -300 0
-704 722 300 0
-705 -722 386 0
-705 722 -386 0
-706 -722 -386 0
-706 722 386 0
-707 -722 476 0
-707 722 -476 0
-708 -722 -476 0
-708 722 476 0
-709 -722 570 0
-709 722 -570 0
-710 -722 -570 0
-710 722 570 0
-689 -723 0
-690 723 0
-691 -723 0
-692 723 0
-693 723 0
-694 -723 0
-695 723 0
-696 -723 0
-697 -723 67 0
-697 723 -67 0
-698 -723 -67 0
-698 723 67 0
-699 -723 141 0
-699 723 -141 0
-700 -723 -141 0
-700 723 141 0
-701 -723 219 0
-701 723 -219 0
-702 -723 -219 0
-702 723 219 0
-703 -723 301 0
-703 723 -301 0
-704 -723 -301 0
-704 723 301 0
-705 -723 387 0
-705 723 -387 0
-706 -723 -387 0
-706 723 387 0
-707 -723 477 0
-707 723 -477 0
-708 -723 -477 0
-708 723 477 0
-709 -723 571 0
-709 723 -571 0
-710 -723 -571 0
-710 723 571 0
-689 724 0
-690 -724 0
-691 -724 0
-692 724 0
-693 724 0
-694 -724 0
-695 724 0
-696 -724 0
-697 -724 68 0
-697 724 -68 0
-698 -724 -68 0
-698 724 68 0
-699 -724 142 0
-699 724 -142 0
-700 -724 -142 0
-700 724 142 0
-701 -724 220 0
-701 724 -220 0
-702 -724 -220 0
-702 724 220 0
-703 -724 302 0
-703 724 -302 0
-704 -724 -302 0
-704 724 302 0
-705 -724 388 0
-705 724 -388 0
-706 -724 -388 0
-706 724 388 0
-707 -724 478 0
-707 724 -478 0
-708 -724 -478 0
-708 724 478 0
-709 -724 572 0
-709 724 -572 0
-710 -724 -572 0
-710 724 572 0
-689 -725 0
-690 725 0
-691 725 0
-692 -725 0
-693 725 0
-694 -725 0
-695 725 0
-696 -725 0
-697 -725 69 0
-697 725 -69 0
-698 -725 -69 0
-698 725 69 0
-699 -725 143 0
-699 725 -143 0
-700 -725 -143 0
-700 725 143 0
-701 -725 221 0
-701 725 -221 0
-702 -725 -221 0
-702 725 221 0
-703 -725 303 0
-703 725 -303 0
-704 -725 -303 0
-704 725 303 0
-705 -725 389 0
-705 725 -389 0
-706 -725 -389 0
-706 725 389 0
-707 -725 479 0
-707 725 -479 0
-708 -725 -479 0
-708 725 479 0
-709 -725 573 0
-709 725 -573 0
-710 -725 -573 0
-710 725 573 0
-689 726 0
-690 -726 0
-691 726 0
-692 -726 0
-693 726 0
-694 -726 0
-695 726 0
-696 -726 0
-697 -726 70 0
-697 726 -70 0
-698 -726 -70 0
-698 726 70 0
-699 -726 144 0
-699 726 -144 0
-700 -726 -144 0
-700 726 144 0
-701 -726 222 0
-701 726 -222 0
-702 -726 -222 0
-702 726 222 0
-703 -726 304 0
-703 726 -304 0
-704 -726 -304 0
-704 726 304 0
-705 -726 390 0
-705 726 -390 0
-706 -726 -390 0
-706 726 390 0
-707 -726 480 0
-707 726 -480 0
-708 -726 -480 0
-708 726 480 0
-709 -726 574 0
-709 726 -574 0
-710 -726 -574 0
-710 726 574 0
727 728 729 730 731 732 733 734 735 736 737 738 739 740 741 742 743 744 745 746 747 748 0
-727 -728 0
-727 -729 0
-727 -730 0
-727 -731 0
-727 -732 0
-727 -733 0
-727 -734 0
-727 -735 0
-727 -736 0
-727 -737 0
-727 -738 0
-727 -739 0
-727 -740 0
-727 -741 0
-727 -742 0
-727 -743 0
-727 -744 0
-727 -745 0
-727 -746 0
-727 -747 0
-727 -748 0
-728 -729 0
-728 -730 0
-728 -731 0
-728 -732 0
-728 -733 0
-728 -734 0
-728 -735 0
-728 -736 0
-728 -737 0
-728 -738 0
-728 -739 0
-728 -740 0
-728 -741 0
-728 -742 0
-728 -743 0
-728 -744 0
-728 -745 0
-728 -746 0
-728 -747 0
-728 -748 0
-729 -730 0
-729 -731 0
-729 -732 0
-729 -733 0
-729 -734 0
-729 -735 0
-729 -736 0
-729 -737 0
-729 -738 0
-729 -739 0
-729 -740 0
-729 -741 0
-729 -742 0
-729 -743 0
-729 -744 0
-729 -745 0
-729 -746 0
-729 -747 0
-729 -748 0
-730 -731 0
-730 -732 0
-730 -733 0
-730 -734 0
-730 -735 0
-730 -736 0
-730 -737 0
-730 -738 0
-730 -739 0
-730 -740 0
-730 -741 0
-730 -742 0
-730 -743 0
-730 -744 0
-730 -745 0
-730 -746 0
-730 -747 0
-730 -748 0
-731 -732 0
-731 -733 0
-731 -734 0
-731 -735 0
-731 -736 0
-731 -737 0
-731 -738 0
-731 -739 0
-731 -740 0
-731 -741 0
-731 -742 0
-731 -743 0
-731 -744 0
-731 -745 0
-731 -746 0
-731 -747 0
-731 -748 0
-732 -733 0
-732 -734 0
-732 -735 0
-732 -736 0
-732 -737 0
-732 -738 0
-732 -739 0
-732 -740 0
-732 -741 0
-732 -742 0
-732 -743 0
-732 -744 0
-732 -745 0
-732 -746 0
-732 -747 0
-732 -748 0
-733 -734 0
-733 -735 0
-733 -736 0
-733 -737 0
-733 -738 0
-733 -739 0
-733 -740 0
-733 -741 0
-733 -742 0
-733 -743 0
-733 -744 0
-733 -745 0
-733 -746 0
-733 -747 0
-733 -748 0
-734 -735 0
-734 -736 0
-734 -737 0
-734 -738 0
-734 -739 0
-734 -740 0
-734 -741 0
-734 -742 0
-734 -743 0
-734 -744 0
-734 -745 0
-734 -746 0
-734 -747 0
-734 -748 0
-735 -736 0
-735 -737 0
-735 -738 0
-735 -739 0
-735 -740 0
-735 -741 0
-735 -742 0
-735 -743 0
-735 -744 0
-735 -745 0
-735 -746 0
-735 -747 0
-735 -748 0
-736 -737 0
-736 -738 0
-736 -739 0
-736 -740 0
-736 -741 0
-736 -742 0
-736 -743 0
-736 -744 0
-736 -745 0
-736 -746 0
-736 -747 0
-736 -748 0
-737 -738 0
-737 -739 0
-737 -740 0
-737 -741 0
-737 -742 0
-737 -743 0
-737 -744 0
-737 -745 0
-737 -746 0
-737 -747 0
-737 -748 0
-738 -739 0
-738 -740 0
-738 -741 0
-738 -742 0
-738 -743 0
-738 -744 0
-738 -745 0
-738 -746 0
-738 -747 0
-738 -748 0
-739 -740 0
-739 -741 0
-739 -742 0
-739 -743 0
-739 -744 0
-739 -745 0
-739 -746 0
-739 -747 0
-739 -748 0
-740 -741 0
-740 -742 0
-740 -743 0
-740 -744 0
-740 -745 0
-740 -746 0
-740 -747 0
-740 -748 0
-741 -742 0
-741 -743 0
-741 -744 0
-741 -745 0
-741 -746 0
-741 -747 0
-741 -748 0
-742 -743 0
-742 -744 0
-742 -745 0
-742 -746 0
-742 -747 0
-742 -748 0
-743 -744 0
-743 -745 0
-743 -746 0
-743 -747 0
-743 -748 0
-744 -745 0
-744 -746 0
-744 -747 0
-744 -748 0
-745 -746 0
-745 -747 0
-745 -748 0
-746 -747 0
-746 -748 0
-747 -748 0
-727 -749 0
-728 749 0
-729 -749 0
-730 749 0
-731 -749 0
-732 749 0
-733 -749 0
-734 749 0
-735 -749 55 0
-735 749 -55 0
-736 -749 -55 0
-736 749 55 0
-737 -749 129 0
-737 749 -129 0
-738 -749 -129 0
-738 749 129 0
-739 -749 207 0
-739 749 -207 0
-740 -749 -207 0
-740 749 207 0
-741 -749 289 0
-741 749 -289 0
-742 -749 -289 0
-742 749 289 0
-743 -749 375 0
-743 749 -375 0
-744 -749 -375 0
-744 749 375 0
-745 -749 465 0
-745 749 -465 0
-746 -749 -465 0
-746 749 465 0
-747 -749 559 0
-747 749 -559 0
-748 -749 -559 0
-748 749 559 0
-727 750 0
-728 -750 0
-729 -750 0
-730 750 0
-731 -750 0
-732 750 0
-733 -750 0
-734 750 0
-735 -750 56 0
-735 750 -56 0
-736 -750 -56 0
-736 750 56 0
-737 -750 130 0
-737 750 -130 0
-738 -750 -130 0
-738 750 130 0
-739 -750 208 0
-739 750 -208 0
-740 -750 -208 0
-740 750 208 0
-741 -750 290 0
-741 750 -290 0
-742 -750 -290 0
-742 750 290 0
-743 -750 376 0
-743 750 -376 0
-744 -750 -376 0
-744 750 376 0
-745 -750 466 0
-745 750 -466 0
-746 -750 -466 0
-746 750 466 0
-747 -750 560 0
-747 750 -560 0
-748 -750 -560 0
-748 750 560 0
-727 -751 0
-728 751 0
-729 751 0
-730 -751 0
-731 -751 0
-732 751 0
-733 -751 0
-734 751 0
-735 -751 57 0
-735 751 -57 0
-736 -751 -57 0
-736 751 57 0
-737 -751 131 0
-737 751 -131 0
-738 -751 -131 0
-738 751 131 0
-739 -751 209 0
-739 751 -209 0
-740 -751 -209 0
-740 751 209 0
-741 -751 291 0
-741 751 -291 0
-742 -751 -291 0
-742 751 291 0
-743 -751 377 0
-743 751 -377 0
-744 -751 -377 0
-744 751 377 0
-745 -751 467 0
-745 751 -467 0
-746 -751 -467 0
-746 751 467 0
-747 -751 561 0
-747 751 -561 0
-748 -751 -561 0
-748 751 561 0
-727 752 0
-728 -752 0
-729 752 0
-730 -752 0
-731 -752 0
-732 752 0
-733 -752 0
-734 752 0
-735 -752 58 0
-735 752 -58 0
-736 -752 -58 0
-736 752 58 0
-737 -752 132 0
-737 752 -132 0
-738 -752 -132 0
-738 752 132 0
-739 -752 210 0
-739 752 -210 0
-740 -752 -210 0
-740 752 210 0
-741 -752 292 0
-741 752 -292 0
-742 -752 -292 0
-742 752 292 0
-743 -752 378 0
-743 752 -378 0
-744 -752 -378 0
-744 752 378 0
-745 -752 468 0
-745 752 -468 0
-746 -752 -468 0
-746 752 468 0
-747 -752 562 0
-747 752 -562 0
-748 -752 -562 0
-748 752 562 0
-727 -753 0
-728 753 0
-729 -753 0
-730 753 0
-731 753 0
-732 -753 0
-733 -753 0
-734 753 0
-735 -753 59 0
-735 753 -59 0
-736 -753 -59 0
-736 753 59 0
-737 -753 133 0
-737 753 -133 0
-738 -753 -133 0
-738 753 133 0
-739 -753 211 0
-739 753 -211 0
-740 -753 -211 0
-740 753 211 0
-741 -753 293 0
-741 753 -293 0
-742 -753 -293 0
-742 753 293 0
-743 -753 379 0
-743 753 -379 0
-744 -753 -379 0
-744 753 379 0
-745 -753 469 0
-745 753 -469 0
-746 -753 -469 0
-746 753 469 0
-747 -753 563 0
-747 753 -563 0
-748 -753 -563 0
-748 753 563 0
-727 754 0
-728 -754 0
-729 -754 0
-730 754 0
-731 754 0
-732 -754 0
-733 -754 0
-734 754 0
-735 -754 60 0
-735 754 -60 0
-736 -754 -60 0
-736 754 60 0
-737 -754 134 0
-737 754 -134 0
-738 -754 -134 0
-738 754 134 0
-739 -754 212 0
-739 754 -212 0
-740 -754 -212 0
-740 754 212 0
-741 -754 294 0
-741 754 -294 0
-742 -754 -294 0
-742 754 294 0
-743 -754 380 0
-743 754 -380 0
-744 -754 -380 0
-744 754 380 0
-745 -754 470 0
-745 754 -470 0
-746 -754 -470 0
-746 754 470 0
-747 -754 564 0
-747 754 -564 0
-748 -754 -564 0
-748 754 564 0
-727 -755 0
-728 755 0
-729 755 0
-730 -755 0
-731 755 0
-732 -755 0
-733 -755 0
-734 755 0
-735 -755 61 0
-735 755 -61 0
-736 -755 -61 0
-736 755 61 0
-737 -755 135 0
-737 755 -135 0
-738 -755 -135 0
-738 755 135 0
-739 -755 213 0
-739 755 -213 0
-740 -755 -213 0
-740 755 213 0
-741 -755 295 0
-741 755 -295 0
-742 -755 -295 0
-742 755 295 0
-743 -755 381 0
-743 755 -381 0
-744 -755 -381 0
-744 755 381 0
-745 -755 471 0
-745 755 -471 0
-746 -755 -471 0
-746 755 471 0
-747 -755 565 0
-747 755 -565 0
-748 -755 -565 0
-748 755 565 0
-727 756 0
-728 -756 0
-729 756 0
-730 -756 0
-731 756 0
-732 -756 0
-733 -756 0
-734 756 0
-735 -756 62 0
-735 756 -62 0
-736 -756 -62 0
-736 756 62 0
-737 -756 136 0
-737 756 -136 0
-738 -756 -136 0
-738 756 136 0
-739 -756 214 0
-739 756 -214 0
-740 -756 -214 0
-740 756 214 0
-741 -756 296 0
-741 756 -296 0
-742 -756 -296 0
-742 756 296 0
-743 -756 382 0
-743 756 -382 0
-744 -756 -382 0
-744 756 382 0
-745 -756 472 0
-745 756 -472 0
-746 -756 -472 0
-746 756 472 0
-747 -756 566 0
-747 756 -566 0
-748 -756 -566 0
-748 756 566 0
-727 -757 0
-728 757 0
-729 -757 0
-730 757 0
-731 -757 0
-732 757 0
-733 757 0
-734 -757 0
-735 -757 63 0
-735 757 -63 0
-736 -757 -63 0
-736 757 63 0
-737 -757 137 0
-737 757 -137 0
-738 -757 -137 0
-738 757 137 0
-739 -757 215 0
-739 757 -215 0
-740 -757 -215 0
-740 757 215 0
-741 -757 297 0
-741 757 -297 0
-742 -757 -297 0
-742 757 297 0
-743 -757 383 0
-743 757 -383 0
-744 -757 -383 0
-744 757 383 0
-745 -757 473 0
-745 757 -473 0
-746 -757 -473 0
-746 757 473 0
-747 -757 567 0
-747 757 -567 0
-748 -757 -567 0
-748 757 567 0
-727 758 0
-728 -758 0
-729 -758 0
-730 758 0
-731 -758 0
-732 758 0
-733 758 0
-734 -758 0
-735 -758 64 0
-735 758 -64 0
-736 -758 -64 0
-736 758 64 0
-737 -758 138 0
-737 758 -138 0
-738 -758 -138 0
-738 758 138 0
-739 -758 216 0
-739 758 -216 0
-740 -758 -216 0
-740 758 216 0
-741 -758 298 0
-741 758 -298 0
-742 -758 -298 0
-742 758 298 0
-743 -758 384 0
-743 758 -384 0
-744 -758 -384 0
-744 758 384 0
-745 -758 474 0
-745 758 -474 0
-746 -758 -474 0
-746 758 474 0
-747 -758 568 0
-747 758 -568 0
-748 -758 -568 0
-748 758 568 0
-727 -759 0
-728 759 0
-729 759 0
-730 -759 0
-731 -759 0
-732 759 0
-733 759 0
-734 -759 0
-735 -759 65 0
-735 759 -65 0
-736 -759 -65 0
-736 759 65 0
-737 -759 139 0
-737 759 -139 0
-738 -759 -139 0
-738 759 139 0
-739 -759 217 0
-739 759 -217 0
-740 -759 -217 0
-740 759 217 0
-741 -759 299 0
-741 759 -299 0
-742 -759 -299 0
-742 759 299 0
-743 -759 385 0
-743 759 -385 0
-744 -759 -385 0
-744 759 385 0
-745 -759 475 0
-745 759 -475 0
-746 -759 -475 0
-746 759 475 0
-747 -759 569 0
-747 759 -569 0
-748 -759 -569 0
-748 759 569 0
-727 760 0
-728 -760 0
-729 760 0
-730 -760 0
-731 -760 0
-732 760 0
-733 760 0
-734 -760 0
-735 -760 66 0
-735 760 -66 0
-736 -760 -66 0
-736 760 66 0
-737 -760 140 0
-737 760 -140 0
-738 -760 -140 0
-738 760 140 0
-739 -760 218 0
-739 760 -218 0
-740 -760 -218 0
-740 760 218 0
-741 -760 300 0
-741 760 -300 0
-742 -760 -300 0
-742 760 300 0
-743 -760 386 0
-743 760 -386 0
-744 -760 -386 0
-744 760 386 0
-745 -760 476 0
-745 760 -476 0
-746 -760 -476 0
-746 760 476 0
-747 -760 570 0
-747 760 -570 0
-748 -760 -570 0
-748 760 570 0
-727 -761 0
-728 761 0
-729 -761 0
-730 761 0
-731 761 0
-732 -761 0
-733 761 0
-734 -761 0
-735 -761 67 0
-735 761 -67 0
-736 -761 -67 0
-736 761 67 0
-737 -761 141 0
-737 761 -141 0
-738 -761 -141 0
-738 761 141 0
-739 -761 219 0
-739 761 -219 0
-740 -761 -219 0
-740 761 219 0
-741 -761 301 0
-741 761 -301 0
-742 -761 -301 0
-742 761 301 0
-743 -761 387 0
-743 761 -387 0
-744 -761 -387 0
-744 761 387 0
-745 -761 477 0
-745 761 -477 0
-746 -761 -477 0
-746 761 477 0
-747 -761 571 0
-747 761 -571 0
-748 -761 -571 0
-748 761 571 0
-727 762 0
-728 -762 0
-729 -762 0
-730 762 0
-731 762 0
-732 -762 0
-733 762 0
-734 -762 0
-735 -762 68 0
-735 762 -68 0
-736 -762 -68 0
-736 762 68 0
-737 -762 142 0
-737 762 -142 0
-738 -762 -142 0
-738 762 142 0
-739 -762 220 0
-739 762 -220 0
-740 -762 -220 0
-740 762 220 0
-741 -762 302 0
-741 762 -302 0
-742 -762 -302 0
-742 762 302 0
-743 -762 388 0
-743 762 -388 0
-744 -762 -388 0
-744 762 388 0
-745 -762 478 0
-745 762 -478 0
-746 -762 -478 0
-746 762 478 0
-747 -762 572 0
-747 762 -572 0
-748 -762 -572 0
-748 762 572 0
-727 -763 0
-728 763 0
-729 763 0
-730 -763 0
-731 763 0
-732 -763 0
-733 763 0
-734 -763 0
-735 -763 69 0
-735 763 -69 0
-736 -763 -69 0
-736 763 69 0
-737 -763 143 0
-737 763 -143 0
-738 -763 -143 0
-738 763 143 0
-739 -763 221 0
-739 763 -221 0
-740 -763 -221 0
-740 763 221 0
-741 -763 303 0
-741 763 -303 0
-742 -763 -303 0
-742 763 303 0
-743 -763 389 0
-743 763 -389 0
-744 -763 -389 0
-744 763 389 0
-745 -763 479 0
-745 763 -479 0
-746 -763 -479 0
-746 763 479 0
-747 -763 573 0
-747 763 -573 0
-748 -763 -573 0
-748 763 573 0
-727 764 0
-728 -764 0
-729 764 0
-730 -764 0
-731 764 0
-732 -764 0
-733 764 0
-734 -764 0
-735 -764 70 0
-735 764 -70 0
-736 -764 -70 0
-736 764 70 0
-737 -764 144 0
-737 764 -144 0
-738 -764 -144 0
-738 764 144 0
-739 -764 222 0
-739 764 -222 0
-740 -764 -222 0
-740 764 222 0
-741 -764 304 0
-741 764 -304 0
-742 -764 -304 0
-742 764 304 0
-743 -764 390 0
-743 764 -390 0
-744 -764 -390 0
-744 764 390 0
-745 -764 480 0
-745 764 -480 0
-746 -764 -480 0
-746 764 480 0
-747 -764 574 0
-747 764 -574 0
-748 -764 -574 0
-748 764 574 0
597 635 673 711 749 0
-597 635 673 711 749 0
597 -635 673 711 749 0
-597 -635 673 711 749 0
597 635 -673 711 749 0
-597 635 -673 711 749 0
597 -635 -673 711 749 0
-597 -635 -673 711 749 0
597 635 673 -711 749 0
-597 635 673 -711 749 0
597 -635 673 -711 749 0
-597 -635 673 -711 749 0
597 635 -673 -711 749 0
-597 635 -673 -711 749 0
597 -635 -673 -711 749 0
-597 -635 -673 -711 749 0
-597 635 -673 711 -749 0
597 -635 -673 711 -749 0
-597 -635 -673 711 -749 0
-597 635 673 -711 -749 0
597 -635 673 -711 -749 0
-597 -635 673 -711 -749 0
-597 635 -673 -711 -749 0
597 -635 -673 -711 -749 0
-597 -635 -673 -711 -749 0
598 636 674 712 750 0
-598 636 674 712 750 0
598 -636 674 712 750 0
-598 -636 674 712 750 0
598 636 -674 712 750 0
-598 636 -674 712 750 0
598 -636 -674 712 750 0
-598 -636 -674 712 750 0
598 636 674 -712 750 0
-598 636 674 -712 750 0
598 -636 674 -712 750 0
-598 -636 674 -712 750 0
598 636 -674 -712 750 0
-598 636 -674 -712 750 0
598 -636 -674 -712 750 0
-598 -636 -674 -712 750 0
598 636 674 712 -750 0
-598 636 674 712 -750 0
598 -636 674 712 -750 0
-598 -636 674 712 -750 0
598 636 -674 712 -750 0
598 -636 -674 712 -750 0
-598 -636 -674 712 -750 0
598 636 674 -712 -750 0
-598 636 674 -712 -750 0
598 -636 674 -712 -750 0
-598 -636 674 -712 -750 0
598 636 -674 -712 -750 0
-598 636 -674 -712 -750 0
598 -636 -674 -712 -750 0
-598 -636 -674 -712 -750 0
599 637 675 713 751 0
-599 637 675 713 751 0
599 -637 675 713 751 0
-599 -637 675 713 751 0
599 637 -675 713 751 0
-599 637 -675 713 751 0
599 -637 -675 713 751 0
-599 -637 -675 713 751 0
599 637 675 -713 751 0
-599 637 675 -713 751 0
599 -637 675 -713 751 0
-599 -637 675 -713 751 0
599 637 -675 -713 751 0
-599 637 -675 -713 751 0
599 -637 -675 -713 751 0
-599 -637 -675 -713 751 0
599 637 675 713 -751 0
-599 637 675 713 -751 0
599 -637 675 713 -751 0
-599 -637 675 713 -751 0
599 637 -675 713 -751 0
-599 637 -675 713 -751 0
-599 -637 -675 713 -751 0
599 637 675 -713 -751 0
599 -637 675 -713 -751 0
-599 -637 675 -713 -751 0
599 637 -675 -713 -751 0
-599 637 -675 -713 -751 0
599 -637 -675 -713 -751 0
-599 -637 -675 -713 -751 0
600 638 676 714 752 0
-600 638 676 714 752 0
600 -638 676 714 752 0
-600 -638 676 714 752 0
600 638 -676 714 752 0
-600 638 -676 714 752 0
600 -638 -676 714 752 0
-600 -638 -676 714 752 0
600 638 676 -714 752 0
-600 638 676 -714 752 0
600 -638 676 -714 752 0
-600 -638 676 -714 752 0
600 638 -676 -714 752 0
-600 638 -676 -714 752 0
600 -638 -676 -714 752 0
-600 -638 -676 -714 752 0
600 638 676 714 -752 0
-600 638 676 714 -752 0
600 -638 676 714 -752 0
-600 -638 676 714 -752 0
600 638 -676 714 -752 0
-600 638 -676 714 -752 0
600 -638 -676 714 -752 0
600 638 676 -714 -752 0
-600 638 676 -714 -752 0
600 -638 676 -714 -752 0
-600 -638 676 -714 -752 0
600 638 -676 -714 -752 0
600 -638 -676 -714 -752 0
-600 -638 -676 -714 -752 0
601 639 677 715 753 0
-601 639 677 715 753 0
601 -639 677 715 753 0
-601 -639 677 715 753 0
601 639 -677 715 753 0
-601 639 -677 715 753 0
601 -639 -677 715 753 0
-601 -639 -677 715 753 0
601 639 677 -715 753 0
-601 639 677 -715 753 0
601 -639 677 -715 753 0
-601 -639 677 -715 753 0
601 639 -677 -715 753 0
-601 639 -677 -715 753 0
601 -639 -677 -715 753 0
-601 -639 -677 -715 753 0
601 639 677 715 -753 0
-601 639 677 715 -753 0
601 -639 677 715 -753 0
-601 -639 677 715 -753 0
601 639 -677 715 -753 0
-601 639 -677 715 -753 0
601 -639 -677 715 -753 0
-601 -639 -677 715 -753 0
601 639 677 -715 -753 0
-601 639 677 -715 -753 0
-601 -639 677 -715 -753 0
601 639 -677 -715 -753 0
-601 639 -677 -715 -753 0
601 -639 -677 -715 -753 0
-601 -639 -677 -715 -753 0
-602 640 678 716 754 0
602 -640 678 716 754 0
-602 -640 678 716 754 0
602 640 -678 716 754 0
-602 640 -678 716 754 0
602 -640 -678 716 754 0
-602 -640 -678 716 754 0
602 640 678 -716 754 0
-602 640 678 -716 754 0
602 -640 678 -716 754 0
-602 -640 678 -716 754 0
602 640 -678 -716 754 0
-602 640 -678 -716 754 0
602 -640 -678 -716 754 0
-602 -640 -678 -716 754 0
602 640 678 716 -754 0
-602 640 678 716 -754 0
602 -640 678 716 -754 0
-602 -640 678 716 -754 0
602 640 -678 716 -754 0
-602 640 -678 716 -754 0
602 -640 -678 716 -754 0
-602 -640 -678 716 -754 0
602 640 678 -716 -754 0
-602 640 678 -716 -754 0
602 -640 678 -716 -754 0
-602 -640 678 -716 -754 0
602 640 -678 -716 -754 0
-602 640 -678 -716 -754 0
602 -640 -678 -716 -754 0
-602 -640 -678 -716 -754 0
603 641 679 717 755 0
-603 641 679 717 755 0
603 -641 679 717 755 0
-603 -641 679 717 755 0
603 641 -679 717 755 0
-603 641 -679 717 755 0
603 -641 -679 717 755 0
-603 -641 -679 717 755 0
603 641 679 -717 755 0
-603 641 679 -717 755 0
603 -641 679 -717 755 0
-603 -641 679 -717 755 0
603 641 -679 -717 755 0
-603 641 -679 -717 755 0
603 -641 -679 -717 755 0
-603 -641 -679 -717 755 0
603 641 679 717 -755 0
-603 641 679 717 -755 0
603 -641 679 717 -755 0
-603 -641 679 717 -755 0
603 641 -679 717 -755 0
-603 641 -679 717 -755 0
603 -641 -679 717 -755 0
-603 -641 -679 717 -755 0
603 641 679 -717 -755 0
-603 641 679 -717 -755 0
603 -641 679 -717 -755 0
603 641 -679 -717 -755 0
-603 641 -679 -717 -755 0
-603 -641 -679 -717 -755 0
-604 642 680 718 756 0
604 -642 680 718 756 0
-604 -642 680 718 756 0
604 642 -680 718 756 0
-604 642 -680 718 756 0
604 -642 -680 718 756 0
-604 -642 -680 718 756 0
604 642 680 -718 756 0
-604 642 680 -718 756 0
604 -642 680 -718 756 0
-604 -642 680 -718 756 0
604 642 -680 -718 756 0
-604 642 -680 -718 756 0
604 -642 -680 -718 756 0
-604 -642 -680 -718 756 0
604 642 680 718 -756 0
-604 642 680 718 -756 0
604 -642 680 718 -756 0
-604 -642 680 718 -756 0
604 642 -680 718 -756 0
-604 642 -680 718 -756 0
604 -642 -680 718 -756 0
-604 -642 -680 718 -756 0
604 642 680 -718 -756 0
-604 642 680 -718 -756 0
604 -642 680 -718 -756 0
-604 -642 680 -718 -756 0
604 642 -680 -718 -756 0
-604 642 -680 -718 -756 0
604 -642 -680 -718 -756 0
-604 -642 -680 -718 -756 0
-605 643 681 719 757 0
605 -643 681 719 757 0
-605 -643 681 719 757 0
605 643 -681 719 757 0
-605 643 -681 719 757 0
605 -643 -681 719 757 0
-605 -643 -681 719 757 0
605 643 681 -719 757 0
-605 643 681 -719 757 0
605 -643 681 -719 757 0
-605 -643 681 -719 757 0
605 643 -681 -719 757 0
-605 643 -681 -719 757 0
605 -643 -681 -719 757 0
-605 -643 -681 -719 757 0
605 643 681 719 -757 0
-605 643 681 719 -757 0
605 -643 681 719 -757 0
-605 -643 681 719 -757 0
605 643 -681 719 -757 0
-605 643 -681 719 -757 0
605 -643 -681 719 -757 0
-605 -643 -681 719 -757 0
605 643 681 -719 -757 0
-605 643 681 -719 -757 0
605 -643 681 -719 -757 0
-605 -643 681 -719 -757 0
605 643 -681 -719 -757 0
-605 643 -681 -719 -757 0
605 -643 -681 -719 -757 0
-605 -643 -681 -719 -757 0
606 644 682 720 758 0
-606 644 682 720 758 0
606 -644 682 720 758 0
-606 -644 682 720 758 0
606 644 -682 720 758 0
-606 644 -682 720 758 0
606 -644 -682 720 758 0
-606 -644 -682 720 758 0
606 644 682 -720 758 0
-606 644 682 -720 758 0
606 -644 682 -720 758 0
-606 -644 682 -720 758 0
606 644 -682 -720 758 0
-606 644 -682 -720 758 0
606 -644 -682 -720 758 0
-606 -644 -682 -720 758 0
606 644 682 720 -758 0
-606 644 682 720 -758 0
606 -644 682 720 -758 0
-606 -644 682 720 -758 0
606 644 -682 720 -758 0
-606 644 -682 720 -758 0
606 -644 -682 720 -758 0
-606 -644 -682 720 -758 0
606 644 682 -720 -758 0
-606 644 682 -720 -758 0
606 -644 682 -720 -758 0
-606 -644 682 -720 -758 0
606 644 -682 -720 -758 0
-606 644 -682 -720 -758 0
606 -644 -682 -720 -758 0
-607 645 683 721 759 0
607 -645 683 721 759 0
-607 -645 683 721 759 0
607 645 -683 721 759 0
-607 645 -683 721 759 0
607 -645 -683 721 759 0
-607 -645 -683 721 759 0
607 645 683 -721 759 0
-607 645 683 -721 759 0
607 -645 683 -721 759 0
-607 -645 683 -721 759 0
607 645 -683 -721 759 0
-607 645 -683 -721 759 0
607 -645 -683 -721 759 0
-607 -645 -683 -721 759 0
607 645 683 721 -759 0
-607 645 683 721 -759 0
607 -645 683 721 -759 0
-607 -645 683 721 -759 0
607 645 -683 721 -759 0
-607 645 -683 721 -759 0
607 -645 -683 721 -759 0
-607 -645 -683 721 -759 0
607 645 683 -721 -759 0
-607 645 683 -721 -759 0
607 -645 683 -721 -759 0
-607 -645 683 -721 -759 0
607 645 -683 -721 -759 0
-607 645 -683 -721 -759 0
607 -645 -683 -721 -759 0
-607 -645 -683 -721 -759 0
-608 646 684 722 760 0
608 -646 684 722 760 0
-608 -646 684 722 760 0
608 646 -684 722 760 0
-608 646 -684 722 760 0
608 -646 -684 722 760 0
-608 -646 -684 722 760 0
608 646 684 -722 760 0
-608 646 684 -722 760 0
608 -646 684 -722 760 0
-608 -646 684 -722 760 0
608 646 -684 -722 760 0
-608 646 -684 -722 760 0
608 -646 -684 -722 760 0
-608 -646 -684 -722 760 0
608 646 684 722 -760 0
-608 646 684 722 -760 0
608 -646 684 722 -760 0
-608 -646 684 722 -760 0
608 646 -684 722 -760 0
-608 646 -684 722 -760 0
608 -646 -684 722 -760 0
-608 -646 -684 722 -760 0
608 646 684 -722 -760 0
-608 646 684 -722 -760 0
608 -646 684 -722 -760 0
-608 -646 684 -722 -760 0
608 646 -684 -722 -760 0
-608 646 -684 -722 -760 0
608 -646 -684 -722 -760 0
-608 -646 -684 -722 -760 0
-609 647 685 723 761 0
609 -647 685 723 761 0
-609 -647 685 723 761 0
609 647 -685 723 761 0
-609 647 -685 723 761 0
609 -647 -685 723 761 0
-609 -647 -685 723 761 0
609 647 685 -723 761 0
-609 647 685 -723 761 0
609 -647 685 -723 761 0
-609 -647 685 -723 761 0
609 647 -685 -723 761 0
-609 647 -685 -723 761 0
609 -647 -685 -723 761 0
-609 -647 -685 -723 761 0
609 647 685 723 -761 0
-609 647 685 723 -761 0
609 -647 685 723 -761 0
-609 -647 685 723 -761 0
609 647 -685 723 -761 0
-609 647 -685 723 -761 0
609 -647 -685 723 -761 0
-609 -647 -685 723 -761 0
609 647 685 -723 -761 0
-609 647 685 -723 -761 0
609 -647 685 -723 -761 0
-609 -647 685 -723 -761 0
609 647 -685 -723 -761 0
-609 647 -685 -723 -761 0
609 -647 -685 -723 -761 0
-609 -647 -685 -723 -761 0
-610 648 686 724 762 0
610 -648 686 724 762 0
-610 -648 686 724 762 0
610 648 -686 724 762 0
-610 648 -686 724 762 0
610 -648 -686 724 762 0
-610 -648 -686 724 762 0
610 648 686 -724 762 0
-610 648 686 -724 762 0
610 -648 686 -724 762 0
-610 -648 686 -724 762 0
610 648 -686 -724 762 0
-610 648 -686 -724 762 0
610 -648 -686 -724 762 0
-610 -648 -686 -724 762 0
610 648 686 724 -762 0
-610 648 686 724 -762 0
610 -648 686 724 -762 0
-610 -648 686 724 -762 0
610 648 -686 724 -762 0
-610 648 -686 724 -762 0
610 -648 -686 724 -762 0
-610 -648 -686 724 -762 0
610 648 686 -724 -762 0
-610 648 686 -724 -762 0
610 -648 686 -724 -762 0
-610 -648 686 -724 -762 0
610 648 -686 -724 -762 0
-610 648 -686 -724 -762 0
610 -648 -686 -724 -762 0
-610 -648 -686 -724 -762 0
-611 649 687 725 763 0
611 -649 687 725 763 0
-611 -649 687 725 763 0
611 649 -687 725 763 0
-611 649 -687 725 763 0
611 -649 -687 725 763 0
-611 -649 -687 725 763 0
611 649 687 -725 763 0
-611 649 687 -725 763 0
611 -649 687 -725 763 0
-611 -649 687 -725 763 0
611 649 -687 -725 763 0
-611 649 -687 -725 763 0
611 -649 -687 -725 763 0
-611 -649 -687 -725 763 0
611 649 687 725 -763 0
-611 649 687 725 -763 0
611 -649 687 725 -763 0
-611 -649 687 725 -763 0
611 649 -687 725 -763 0
-611 649 -687 725 -763 0
611 -649 -687 725 -763 0
-611 -649 -687 725 -763 0
611 649 687 -725 -763 0
-611 649 687 -725 -763 0
611 -649 687 -725 -763 0
-611 -649 687 -725 -763 0
611 649 -687 -725 -763 0
-611 649 -687 -725 -763 0
611 -649 -687 -725 -763 0
-611 -649 -687 -725 -763 0
-612 650 688 726 764 0
612 -650 688 726 764 0
-612 -650 688 726 764 0
612 650 -688 726 764 0
-612 650 -688 726 764 0
612 -650 -688 726 764 0
-612 -650 -688 726 764 0
612 650 688 -726 764 0
-612 650 688 -726 764 0
612 -650 688 -726 764 0
-612 -650 688 -726 764 0
612 650 -688 -726 764 0
-612 650 -688 -726 764 0
612 -650 -688 -726 764 0
-612 -650 -688 -726 764 0
612 650 688 726 -764 0
-612 650 688 726 -764 0
612 -650 688 726 -764 0
-612 -650 688 726 -764 0
612 650 -688 726 -764 0
-612 650 -688 726 -764 0
612 -650 -688 726 -764 0
-612 -650 -688 726 -764 0
612 650 688 -726 -764 0
-612 650 688 -726 -764 0
612 -650 688 -726 -764 0
-612 -650 688 -726 -764 0
612 650 -688 -726 -764 0
-612 650 -688 -726 -764 0
612 -650 -688 -726 -764 0
-612 -650 -688 -726 -764 0
