p cnf 40 227
1 2 3 4 0
-1 -2 0
-1 -3 0
-1 -4 0
-2 -3 0
-2 -4 0
-3 -4 0
-1 -5 0
-2 5 0
-3 -5 0
-4 5 0
-1 6 0
-2 -6 0
-3 -6 0
-4 6 0
-1 -7 0
-2 7 0
-3 7 0
-4 -7 0
-1 8 0
-2 -8 0
-3 8 0
-4 -8 0
9 10 11 12 0
-9 -10 0
-9 -11 0
-9 -12 0
-10 -11 0
-10 -12 0
-11 -12 0
-9 -13 0
-10 13 0
-11 -13 0
-12 13 0
-9 14 0
-10 -14 0
-11 -14 0
-12 14 0
-9 -15 0
-10 15 0
-11 15 0
-12 -15 0
-9 16 0
-10 -16 0
-11 16 0
-12 -16 0
17 18 19 20 0
-17 -18 0
-17 -19 0
-17 -20 0
-18 -19 0
-18 -20 0
-19 -20 0
-17 -21 0
-18 21 0
-19 -21 0
-20 21 0
-17 22 0
-18 -22 0
-19 -22 0
-20 22 0
-17 -23 0
-18 23 0
-19 23 0
-20 -23 0
-17 24 0
-18 -24 0
-19 24 0
-20 -24 0
25 26 27 28 0
-25 -26 0
-25 -27 0
-25 -28 0
-26 -27 0
-26 -28 0
-27 -28 0
-25 -29 0
-26 29 0
-27 -29 0
-28 29 0
-25 30 0
-26 -30 0
-27 -30 0
-28 30 0
-25 -31 0
-26 31 0
-27 31 0
-28 -31 0
-25 32 0
-26 -32 0
-27 32 0
-28 -32 0
33 34 35 36 0
-33 -34 0
-33 -35 0
-33 -36 0
-34 -35 0
-34 -36 0
-35 -36 0
-33 -37 0
-34 37 0
-35 -37 0
-36 37 0
-33 38 0
-34 -38 0
-35 -38 0
-36 38 0
-33 -39 0
-34 39 0
-35 39 0
-36 -39 0
-33 40 0
-34 -40 0
-35 40 0
-36 -40 0
5 13 21 29 37 0
-5 13 21 29 37 0
5 -13 21 29 37 0
-5 -13 21 29 37 0
5 13 -21 29 37 0
-5 13 -21 29 37 0
5 -13 -21 29 37 0
-5 -13 -21 29 37 0
5 13 21 -29 37 0
-5 13 21 -29 37 0
5 -13 21 -29 37 0
-5 -13 21 -29 37 0
5 13 -21 -29 37 0
-5 13 -21 -29 37 0
5 -13 -21 -29 37 0
-5 -13 -21 -29 37 0
-5 13 21 29 -37 0
5 -13 21 29 -37 0
-5 -13 21 29 -37 0
5 13 -21 29 -37 0
5 -13 -21 29 -37 0
-5 -13 -21 29 -37 0
5 13 21 -29 -37 0
-5 13 21 -29 -37 0
-5 -13 21 -29 -37 0
5 13 -21 -29 -37 0
-5 13 -21 -29 -37 0
5 -13 -21 -29 -37 0
6 14 22 30 38 0
-6 14 22 30 38 0
6 -14 22 30 38 0
-6 -14 22 30 38 0
6 14 -22 30 38 0
-6 14 -22 30 38 0
6 -14 -22 30 38 0
-6 -14 -22 30 38 0
6 14 22 -30 38 0
-6 14 22 -30 38 0
6 -14 22 -30 38 0
-6 -14 22 -30 38 0
6 14 -22 -30 38 0
-6 14 -22 -30 38 0
6 -14 -22 -30 38 0
-6 -14 -22 -30 38 0
6 14 22 30 -38 0
6 -14 22 30 -38 0
-6 -14 22 30 -38 0
-6 14 -22 30 -38 0
-6 -14 -22 30 -38 0
6 14 22 -30 -38 0
6 -14 22 -30 -38 0
6 14 -22 -30 -38 0
-6 14 -22 -30 -38 0
-6 -14 -22 -30 -38 0
7 15 23 31 39 0
-7 15 23 31 39 0
7 -15 23 31 39 0
-7 -15 23 31 39 0
7 15 -23 31 39 0
-7 15 -23 31 39 0
7 -15 -23 31 39 0
-7 -15 -23 31 39 0
7 15 23 -31 39 0
-7 15 23 -31 39 0
7 -15 23 -31 39 0
-7 -15 23 -31 39 0
7 15 -23 -31 39 0
-7 15 -23 -31 39 0
7 -15 -23 -31 39 0
-7 -15 -23 -31 39 0
7 15 23 31 -39 0
-7 15 23 31 -39 0
-7 -15 23 31 -39 0
7 15 -23 31 -39 0
-7 15 -23 31 -39 0
7 -15 -23 31 -39 0
-7 15 23 -31 -39 0
7 -15 23 -31 -39 0
-7 -15 23 -31 -39 0
7 15 -23 -31 -39 0
7 -15 -23 -31 -39 0
-7 -15 -23 -31 -39 0
8 16 24 32 40 0
-8 16 24 32 40 0
8 -16 24 32 40 0
-8 -16 24 32 40 0
8 16 -24 32 40 0
-8 16 -24 32 40 0
8 -16 -24 32 40 0
-8 -16 -24 32 40 0
8 16 24 -32 40 0
-8 16 24 -32 40 0
8 -16 24 -32 40 0
-8 -16 24 -32 40 0
8 16 -24 -32 40 0
-8 16 -24 -32 40 0
8 -16 -24 -32 40 0
-8 -16 -24 -32 40 0
8 16 24 32 -40 0
-8 16 24 32 -40 0
8 -16 24 32 -40 0
8 16 -24 32 -40 0
-8 16 -24 32 -40 0
8 -16 -24 32 -40 0
-8 -16 -24 32 -40 0
8 16 24 -32 -40 0
-8 16 24 -32 -40 0
8 -16 24 -32 -40 0
-8 -16 24 -32 -40 0
-8 16 -24 -32 -40 0
8 -16 -24 -32 -40 0
-8 -16 -24 -32 -40 0
